User:   vazumah@c22.hercules
Date:   Tue Jan 17 05:46:18 2023
Arch:   x86_64
Pid:    32148
CWD:    /home/vazumah/Python_projects/LiNRR/autocad_start/bulk_relaxations/Rb_bulk_bcc
Python: 3.10.8
gpaw:   /home/vazumah/.conda/envs/GPAW/lib/python3.10/site-packages/gpaw
_gpaw:  /home/vazumah/.conda/envs/GPAW/lib/python3.10/site-packages/
        _gpaw.cpython-310-x86_64-linux-gnu.so
ase:    /home/vazumah/.conda/envs/GPAW/lib/python3.10/site-packages/ase (version 3.22.1)
numpy:  /home/vazumah/.conda/envs/GPAW/lib/python3.10/site-packages/numpy (version 1.24.1)
scipy:  /home/vazumah/.conda/envs/GPAW/lib/python3.10/site-packages/scipy (version 1.10.0)
units:  Angstrom and eV
cores: 24
OpenMP: True
OMP_NUM_THREADS: 1

Input parameters:
  h: 0.16
  kpts: {size: [2, 2, 1]}
  occupations: {name: fermi-dirac,
                width: 0.05}
  xc: BEEF-vdW

System changes: positions, numbers, cell, pbc, initial_charges, initial_magmoms

Initialize ...

species:
  Rb:
    name: Rubidium
    id: f3ee551b8c21dced9198efb7d29049b4
    Z: 37.0
    valence: 9
    core: 28
    charge: 0.0
    file: /home/vazumah/.conda/envs/GPAW/share/gpaw/Rb.PBE.gz
    compensation charges: {type: gauss,
                           rc: 0.38,
                           lmax: 2}
    cutoffs: {filter: 2.43,
              core: 1.99}
    valence states:
      #              energy  rcut
      - 4s(2.00)   -31.879   1.376
      - 5s(1.00)    -2.231   1.376
      - 4p(6.00)   -15.966   1.270
      -  p          11.245   1.270
      -  d           0.000   1.217

    # Using partial waves for Rb as LCAO basis

Reference energy: -81103.352423  # eV

Spin-paired calculation

Convergence criteria:
 Maximum [total energy] change in last 3 cyles: 0.0005 eV / electron
 Maximum integral of absolute [dens]ity change: 0.0001 electrons / valence electron
 Maximum integral of absolute [eigenst]ate change: 4e-08 eV^2 / valence electron
 Maximum number of scf [iter]ations: 333
 (Square brackets indicate name in SCF output, whereas a 'c' in
 the SCF output indicates the quantity has converged.)

Symmetries present (total): 48

  ( 1  1  1)  ( 1  1  1)  ( 1  1  1)  ( 1  1  1)  ( 1  1  1)  ( 1  1  1)
  ( 0  0 -1)  ( 0  0 -1)  ( 0 -1  0)  ( 0 -1  0)  (-1  0  0)  (-1  0  0)
  ( 0 -1  0)  (-1  0  0)  ( 0  0 -1)  (-1  0  0)  ( 0  0 -1)  ( 0 -1  0)

[...]

  ( 0 -1  0)  ( 0 -1  0)  ( 0 -1  0)  ( 0 -1  0)  ( 0 -1  0)  ( 0 -1  0)
  ( 1  1  1)  ( 1  1  1)  ( 0  0 -1)  ( 0  0 -1)  (-1  0  0)  (-1  0  0)
  ( 0  0 -1)  (-1  0  0)  ( 1  1  1)  (-1  0  0)  ( 1  1  1)  ( 0  0 -1)

  (-1  0  0)  (-1  0  0)  (-1  0  0)  (-1  0  0)  (-1  0  0)  (-1  0  0)
  ( 1  1  1)  ( 1  1  1)  ( 0  0 -1)  ( 0  0 -1)  ( 0 -1  0)  ( 0 -1  0)
  ( 0  0 -1)  ( 0 -1  0)  ( 1  1  1)  ( 0 -1  0)  ( 1  1  1)  ( 0  0 -1)

  (-1 -1 -1)  (-1 -1 -1)  (-1 -1 -1)  (-1 -1 -1)  (-1 -1 -1)  (-1 -1 -1)
  ( 1  0  0)  ( 1  0  0)  ( 0  1  0)  ( 0  1  0)  ( 0  0  1)  ( 0  0  1)
  ( 0  1  0)  ( 0  0  1)  ( 1  0  0)  ( 0  0  1)  ( 1  0  0)  ( 0  1  0)
Note: your k-points are not as symmetric as your crystal!

4 k-points: 2 x 2 x 1 Monkhorst-Pack grid
2 k-points in the irreducible part of the Brillouin zone
       k-points in crystal coordinates                weights
   0:     0.25000000   -0.25000000    0.00000000          2/4
   1:     0.25000000    0.25000000    0.00000000          2/4

Occupation numbers: Fermi-Dirac:
  width: 0.0500  # eV

Eigensolver
   Davidson(niter=2)

Densities:
  Coarse grid: 24*24*24 grid
  Fine grid: 48*48*48 grid
  Total Charge: 0.000000

Density mixing:
  Method: separate
  Backend: pulay
  Linear mixing parameter: 0.05
  old densities: 5
  Damping of long wavelength oscillations: 50

Hamiltonian:
  XC and Coulomb potentials evaluated on a 48*48*48 grid
  Using the BEEF-vdW Exchange-Correlation functional
  Interpolation: tri-quintic (5. degree polynomial)
  Poisson solver: FastPoissonSolver using
    Stencil: 8*3+1=25 point O(h^6) finite-difference Laplacian
    FFT axes: [0, 1, 2]
    FST axes: []

XC parameters: BEEF-vdW with 2 nearest neighbor stencil

Total number of cores used: 24
Parallelization over k-points: 2
Domain decomposition: 3 x 2 x 2

Number of atoms: 1
Number of atomic orbitals: 5
Number of bands in calculation: 5
Number of valence electrons: 9
Bands to converge: occupied

... initialized

Initializing position-dependent things.

Density initialized from atomic densities
Creating initial wave functions:
  5 bands from LCAO basis set

       Rb

Positions:
   0 Rb     0.000000    0.000000    0.000000    ( 0.0000,  0.0000,  0.0000)

Unit cell:
           periodic     x           y           z      points  spacing
  1. axis:    yes   -2.795000    2.795000    2.795000    24     0.1647
  2. axis:    yes    2.795000   -2.795000    2.795000    24     0.1647
  3. axis:    yes    2.795000    2.795000   -2.795000    24     0.1647

  Lengths:   4.841082   4.841082   4.841082
  Angles:  109.471221 109.471221 109.471221

Effective grid spacing dv^(1/3) = 0.1849

     iter     time        total  log10-change:
                         energy  eigst   dens
iter:   1 05:46:54  -103.679201
iter:   2 05:47:20  -103.680378  -0.47  -1.39
iter:   3 05:47:45  -103.624174  -0.70  -1.42
iter:   4 05:48:10  -103.623791  -1.49  -1.83
Writing to output.gpw (mode='')

iter:   5 05:48:35  -103.671286  -1.53  -1.81
iter:   6 05:49:01  -103.622578  -1.48  -1.62
iter:   7 05:49:26  -103.622703  -2.21  -2.53
iter:   8 05:49:52  -103.622707c -2.84  -2.98
iter:   9 05:50:20  -103.622794c -3.21  -2.81
Writing to output.gpw (mode='')

iter:  10 05:50:49  -103.622830c -3.61  -3.48
iter:  11 05:51:17  -103.622847c -3.92  -3.28
iter:  12 05:51:46  -103.622815c -4.00  -3.22
iter:  13 05:52:13  -103.622815c -4.52  -3.93
iter:  14 05:52:36  -103.622815c -4.85  -4.55c
Writing to output.gpw (mode='')

iter:  15 05:53:00  -103.622815c -5.13  -4.47c
iter:  16 05:53:25  -103.622816c -5.43  -4.86c
iter:  17 05:53:49  -103.622816c -5.71  -4.86c
iter:  18 05:54:15  -103.622815c -5.92  -4.88c
iter:  19 05:54:42  -103.622816c -6.22  -4.97c
Writing to output.gpw (mode='')

iter:  20 05:55:11  -103.622816c -6.49  -5.09c
iter:  21 05:55:37  -103.622816c -6.76  -5.19c
iter:  22 05:56:03  -103.622816c -7.02  -5.25c
iter:  23 05:56:28  -103.622815c -7.24  -5.28c
iter:  24 05:56:51  -103.622815c -7.51c -5.38c

Converged after 24 iterations.

Dipole moment: (-0.760431, -0.760431, -0.760431) |e|*Ang

Energy contributions relative to reference atoms: (reference = -81103.352423)

Kinetic:         +9.906349
Potential:       -9.339191
External:        +0.000000
XC:            -104.086687
Entropy (-ST):   -0.000004
Local:           -0.103284
Free energy:   -103.622818
Extrapolated:  -103.622815

Showing all kpts
 Kpt  Band  Eigenvalues  Occupancy
  0     2    -11.86966    2.00000
  0     3    -11.85247    2.00000
  0     4     -0.00488    1.99999

  1     2    -11.89558    2.00000
  1     3    -11.86304    2.00000
  1     4      1.26600    0.00001

Fermi level: 0.63056

No gap
Writing to output.gpw (mode='')

Forces in eV/Ang:
  0 Rb   -0.00000   -0.00000   -0.00000