User:   vazumah@f020
Date:   Wed Jan 11 20:04:42 2023
Arch:   x86_64
Pid:    40772
CWD:    /home/vazumah/Python_Projects/Li_NRR/autocad_start/bulk_relaxations/Ba_bulk_bcc
Python: 3.10.6
gpaw:   /home/vazumah/anaconda3/envs/NAME/lib/python3.10/site-packages/gpaw
_gpaw:  /home/vazumah/anaconda3/envs/NAME/lib/python3.10/site-packages/
        _gpaw.cpython-310-x86_64-linux-gnu.so
ase:    /home/vazumah/anaconda3/envs/NAME/lib/python3.10/site-packages/ase (version 3.22.1)
numpy:  /home/vazumah/anaconda3/envs/NAME/lib/python3.10/site-packages/numpy (version 1.23.3)
scipy:  /home/vazumah/anaconda3/envs/NAME/lib/python3.10/site-packages/scipy (version 1.9.1)
units:  Angstrom and eV
cores: 32
OpenMP: True
OMP_NUM_THREADS: 1

Input parameters:
  h: 0.16
  kpts: {size: [2, 2, 1]}
  occupations: {name: fermi-dirac,
                width: 0.05}
  xc: BEEF-vdW

System changes: positions, numbers, cell, pbc, initial_charges, initial_magmoms

Initialize ...

species:
  Ba:
    name: Barium
    id: 3c0c69fceb001740075f2c7491402c79
    Z: 56.0
    valence: 10
    core: 46
    charge: 0.0
    file: /home/vazumah/anaconda3/envs/NAME/share/gpaw/Ba.PBE.gz
    compensation charges: {type: gauss,
                           rc: 0.37,
                           lmax: 2}
    cutoffs: {filter: 2.06,
              core: 2.33}
    valence states:
      #              energy  rcut
      - 5s(2.00)   -33.644   1.164
      - 6s(2.00)    -3.229   1.164
      - 5p(6.00)   -18.744   1.164
      -  p           0.000   1.164
      -  d           0.000   1.164
      -  d          27.211   1.164

    # Using partial waves for Ba as LCAO basis

Reference energy: -221277.842511  # eV

Spin-paired calculation

Convergence criteria:
 Maximum [total energy] change in last 3 cyles: 0.0005 eV / electron
 Maximum integral of absolute [dens]ity change: 0.0001 electrons / valence electron
 Maximum integral of absolute [eigenst]ate change: 4e-08 eV^2 / valence electron
 Maximum number of scf [iter]ations: 333
 (Square brackets indicate name in SCF output, whereas a 'c' in
 the SCF output indicates the quantity has converged.)

Symmetries present (total): 48

  ( 1  1  1)  ( 1  1  1)  ( 1  1  1)  ( 1  1  1)  ( 1  1  1)  ( 1  1  1)
  ( 0  0 -1)  ( 0  0 -1)  ( 0 -1  0)  ( 0 -1  0)  (-1  0  0)  (-1  0  0)
  ( 0 -1  0)  (-1  0  0)  ( 0  0 -1)  (-1  0  0)  ( 0  0 -1)  ( 0 -1  0)

[...]

  ( 0 -1  0)  ( 0 -1  0)  ( 0 -1  0)  ( 0 -1  0)  ( 0 -1  0)  ( 0 -1  0)
  ( 1  1  1)  ( 1  1  1)  ( 0  0 -1)  ( 0  0 -1)  (-1  0  0)  (-1  0  0)
  ( 0  0 -1)  (-1  0  0)  ( 1  1  1)  (-1  0  0)  ( 1  1  1)  ( 0  0 -1)

  (-1  0  0)  (-1  0  0)  (-1  0  0)  (-1  0  0)  (-1  0  0)  (-1  0  0)
  ( 1  1  1)  ( 1  1  1)  ( 0  0 -1)  ( 0  0 -1)  ( 0 -1  0)  ( 0 -1  0)
  ( 0  0 -1)  ( 0 -1  0)  ( 1  1  1)  ( 0 -1  0)  ( 1  1  1)  ( 0  0 -1)

  (-1 -1 -1)  (-1 -1 -1)  (-1 -1 -1)  (-1 -1 -1)  (-1 -1 -1)  (-1 -1 -1)
  ( 1  0  0)  ( 1  0  0)  ( 0  1  0)  ( 0  1  0)  ( 0  0  1)  ( 0  0  1)
  ( 0  1  0)  ( 0  0  1)  ( 1  0  0)  ( 0  0  1)  ( 1  0  0)  ( 0  1  0)
Note: your k-points are not as symmetric as your crystal!

4 k-points: 2 x 2 x 1 Monkhorst-Pack grid
2 k-points in the irreducible part of the Brillouin zone
       k-points in crystal coordinates                weights
   0:     0.25000000   -0.25000000    0.00000000          2/4
   1:     0.25000000    0.25000000    0.00000000          2/4

Occupation numbers: Fermi-Dirac:
  width: 0.0500  # eV

Eigensolver
   Davidson(niter=2)

Densities:
  Coarse grid: 24*24*24 grid
  Fine grid: 48*48*48 grid
  Total Charge: 0.000000

Density mixing:
  Method: separate
  Backend: pulay
  Linear mixing parameter: 0.05
  old densities: 5
  Damping of long wavelength oscillations: 50

Hamiltonian:
  XC and Coulomb potentials evaluated on a 48*48*48 grid
  Using the BEEF-vdW Exchange-Correlation functional
  Interpolation: tri-quintic (5. degree polynomial)
  Poisson solver: FastPoissonSolver using
    Stencil: 8*3+1=25 point O(h^6) finite-difference Laplacian
    FFT axes: [0, 1, 2]
    FST axes: []

XC parameters: BEEF-vdW with 2 nearest neighbor stencil

Total number of cores used: 32
Parallelization over k-points: 2
Domain decomposition: 4 x 2 x 2

Number of atoms: 1
Number of atomic orbitals: 5
Number of bands in calculation: 5
Number of valence electrons: 10
Bands to converge: occupied

... initialized

Initializing position-dependent things.

Density initialized from atomic densities
Creating initial wave functions:
  5 bands from LCAO basis set

       Ba

Positions:
   0 Ba     0.000000    0.000000    0.000000    ( 0.0000,  0.0000,  0.0000)

Unit cell:
           periodic     x           y           z      points  spacing
  1. axis:    yes   -2.510000    2.510000    2.510000    24     0.1479
  2. axis:    yes    2.510000   -2.510000    2.510000    24     0.1479
  3. axis:    yes    2.510000    2.510000   -2.510000    24     0.1479

  Lengths:   4.347448   4.347448   4.347448
  Angles:  109.471221 109.471221 109.471221

Effective grid spacing dv^(1/3) = 0.1660

     iter     time        total  log10-change:
                         energy  eigst   dens
iter:   1 20:05:11  -189.516931
iter:   2 20:05:22  -189.592740  +0.39  -1.24
iter:   3 20:05:33  -189.533327  +0.18  -1.28
iter:   4 20:05:44  -189.519978  +0.09  -1.51
Writing to output.gpw (mode='')

iter:   5 20:05:48  -189.542065  -0.20  -1.92
iter:   6 20:05:59  -189.554851  -0.39  -2.04
iter:   7 20:06:09  -189.563320  -0.45  -2.22
iter:   8 20:06:20  -189.569823  -0.66  -2.56
iter:   9 20:06:24  -189.574237  -0.81  -2.33
Writing to output.gpw (mode='')

iter:  10 20:06:35  -189.577871  -0.93  -2.42
iter:  11 20:06:45  -189.580398  -1.12  -2.65
iter:  12 20:06:56  -189.582524c -1.22  -2.45
iter:  13 20:07:01  -189.584267c -1.30  -2.71
iter:  14 20:07:07  -189.585605c -1.45  -2.61
Writing to output.gpw (mode='')

iter:  15 20:07:18  -189.586592c -1.59  -2.85
iter:  16 20:07:29  -189.587421c -1.67  -2.78
iter:  17 20:07:40  -189.588077c -1.78  -2.59
iter:  18 20:07:44  -189.588691c -1.83  -2.49
iter:  19 20:07:50  -189.589146c -1.94  -2.81
Writing to output.gpw (mode='')

[...]

iter:  45 20:11:47  -189.592145c -3.67  -3.74
iter:  46 20:11:57  -189.592154c -3.73  -3.99
iter:  47 20:12:08  -189.592160c -3.80  -4.11c
iter:  48 20:12:12  -189.592169c -3.83  -3.46
iter:  49 20:12:23  -189.592175c -3.92  -4.23c
Writing to output.gpw (mode='')

[...]

iter:  60 20:14:03  -189.592206c -4.59  -3.54
iter:  61 20:14:14  -189.592208c -4.67  -3.73
iter:  62 20:14:24  -189.592207c -4.77  -3.91
iter:  63 20:14:35  -189.592209c -4.68  -3.60
iter:  64 20:14:39  -189.592210c -4.78  -3.97
Writing to output.gpw (mode='')

iter:  65 20:14:49  -189.592209c -4.90  -3.95
iter:  66 20:14:59  -189.592210c -4.79  -3.50
iter:  67 20:15:09  -189.592211c -4.88  -4.27c
iter:  68 20:15:15  -189.592211c -4.90  -4.27c
iter:  69 20:15:26  -189.592212c -5.03  -4.31c
Writing to output.gpw (mode='')

iter:  70 20:15:37  -189.592212c -5.08  -4.67c
iter:  71 20:15:48  -189.592212c -5.14  -4.97c
iter:  72 20:15:52  -189.592212c -5.31  -5.07c
iter:  73 20:16:03  -189.592212c -5.33  -4.93c
iter:  74 20:16:13  -189.592213c -5.45  -4.83c
Writing to output.gpw (mode='')

[...]

iter: 100 20:22:10  -189.592214c -7.13  -4.88c
iter: 101 20:22:20  -189.592214c -7.16  -5.01c
iter: 102 20:22:52  -189.592214c -7.19  -5.34c
iter: 103 20:23:02  -189.592214c -7.31  -5.66c
iter: 104 20:23:32  -189.592214c -7.34  -5.50c
Writing to output.gpw (mode='')

iter: 105 20:23:41  -189.592214c -7.36  -5.80c
iter: 106 20:24:18  -189.592214c -7.50c -5.93c

Converged after 106 iterations.

Dipole moment: (-1.028091, -1.028091, -1.028091) |e|*Ang

Energy contributions relative to reference atoms: (reference = -221277.842511)

Kinetic:        +11.473963
Potential:       -9.378653
External:        +0.000000
XC:            -191.483687
Entropy (-ST):   -0.000000
Local:           -0.203836
Free energy:   -189.592214
Extrapolated:  -189.592214

Showing all kpts
 Kpt  Band  Eigenvalues  Occupancy
  0     3     -9.14855    2.00000
  0     4      3.10237    2.00000

  1     3     -9.19353    2.00000
  1     4      4.38878    2.00000

Fermi level: inf

Writing to output.gpw (mode='')

Forces in eV/Ang:
  0 Ba    0.00000    0.00000    0.00000