User:   vazumah@c03.hercules
Date:   Tue Jan 17 05:18:26 2023
Arch:   x86_64
Pid:    32719
CWD:    /home/vazumah/Python_projects/LiNRR/autocad_start/bulk_relaxations/Cs_bulk_bcc
Python: 3.10.8
gpaw:   /home/vazumah/.conda/envs/GPAW/lib/python3.10/site-packages/gpaw
_gpaw:  /home/vazumah/.conda/envs/GPAW/lib/python3.10/site-packages/
        _gpaw.cpython-310-x86_64-linux-gnu.so
ase:    /home/vazumah/.conda/envs/GPAW/lib/python3.10/site-packages/ase (version 3.22.1)
numpy:  /home/vazumah/.conda/envs/GPAW/lib/python3.10/site-packages/numpy (version 1.24.1)
scipy:  /home/vazumah/.conda/envs/GPAW/lib/python3.10/site-packages/scipy (version 1.10.0)
units:  Angstrom and eV
cores: 24
OpenMP: True
OMP_NUM_THREADS: 1

Input parameters:
  h: 0.16
  kpts: {size: [2, 2, 1]}
  occupations: {name: fermi-dirac,
                width: 0.05}
  xc: BEEF-vdW

System changes: positions, numbers, cell, pbc, initial_charges, initial_magmoms

Initialize ...

species:
  Cs:
    name: Caesium
    id: fa822afd343f47335d508b9ee4f394c3
    Z: 55.0
    valence: 9
    core: 46
    charge: 0.0
    file: /home/vazumah/.conda/envs/GPAW/share/gpaw/Cs.PBE.gz
    compensation charges: {type: gauss,
                           rc: 0.33,
                           lmax: 2}
    cutoffs: {filter: 2.06,
              core: 2.51}
    valence states:
      #              energy  rcut
      - 5s(2.00)   -26.706   1.164
      - 6s(1.00)    -2.085   1.164
      - 5p(6.00)   -13.523   1.058
      -  p          13.688   1.058
      -  d           0.000   1.058

    # Using partial waves for Cs as LCAO basis

Reference energy: -211800.076486  # eV

Spin-paired calculation

Convergence criteria:
 Maximum [total energy] change in last 3 cyles: 0.0005 eV / electron
 Maximum integral of absolute [dens]ity change: 0.0001 electrons / valence electron
 Maximum integral of absolute [eigenst]ate change: 4e-08 eV^2 / valence electron
 Maximum number of scf [iter]ations: 333
 (Square brackets indicate name in SCF output, whereas a 'c' in
 the SCF output indicates the quantity has converged.)

Symmetries present (total): 48

  ( 1  1  1)  ( 1  1  1)  ( 1  1  1)  ( 1  1  1)  ( 1  1  1)  ( 1  1  1)
  ( 0  0 -1)  ( 0  0 -1)  ( 0 -1  0)  ( 0 -1  0)  (-1  0  0)  (-1  0  0)
  ( 0 -1  0)  (-1  0  0)  ( 0  0 -1)  (-1  0  0)  ( 0  0 -1)  ( 0 -1  0)

[...]

  ( 0 -1  0)  ( 0 -1  0)  ( 0 -1  0)  ( 0 -1  0)  ( 0 -1  0)  ( 0 -1  0)
  ( 1  1  1)  ( 1  1  1)  ( 0  0 -1)  ( 0  0 -1)  (-1  0  0)  (-1  0  0)
  ( 0  0 -1)  (-1  0  0)  ( 1  1  1)  (-1  0  0)  ( 1  1  1)  ( 0  0 -1)

  (-1  0  0)  (-1  0  0)  (-1  0  0)  (-1  0  0)  (-1  0  0)  (-1  0  0)
  ( 1  1  1)  ( 1  1  1)  ( 0  0 -1)  ( 0  0 -1)  ( 0 -1  0)  ( 0 -1  0)
  ( 0  0 -1)  ( 0 -1  0)  ( 1  1  1)  ( 0 -1  0)  ( 1  1  1)  ( 0  0 -1)

  (-1 -1 -1)  (-1 -1 -1)  (-1 -1 -1)  (-1 -1 -1)  (-1 -1 -1)  (-1 -1 -1)
  ( 1  0  0)  ( 1  0  0)  ( 0  1  0)  ( 0  1  0)  ( 0  0  1)  ( 0  0  1)
  ( 0  1  0)  ( 0  0  1)  ( 1  0  0)  ( 0  0  1)  ( 1  0  0)  ( 0  1  0)
Note: your k-points are not as symmetric as your crystal!

4 k-points: 2 x 2 x 1 Monkhorst-Pack grid
2 k-points in the irreducible part of the Brillouin zone
       k-points in crystal coordinates                weights
   0:     0.25000000   -0.25000000    0.00000000          2/4
   1:     0.25000000    0.25000000    0.00000000          2/4

Occupation numbers: Fermi-Dirac:
  width: 0.0500  # eV

Eigensolver
   Davidson(niter=2)

Densities:
  Coarse grid: 28*28*28 grid
  Fine grid: 56*56*56 grid
  Total Charge: 0.000000

Density mixing:
  Method: separate
  Backend: pulay
  Linear mixing parameter: 0.05
  old densities: 5
  Damping of long wavelength oscillations: 50

Hamiltonian:
  XC and Coulomb potentials evaluated on a 56*56*56 grid
  Using the BEEF-vdW Exchange-Correlation functional
  Interpolation: tri-quintic (5. degree polynomial)
  Poisson solver: FastPoissonSolver using
    Stencil: 8*3+1=25 point O(h^6) finite-difference Laplacian
    FFT axes: [0, 1, 2]
    FST axes: []

XC parameters: BEEF-vdW with 2 nearest neighbor stencil

Total number of cores used: 24
Parallelization over k-points: 2
Domain decomposition: 3 x 2 x 2

Number of atoms: 1
Number of atomic orbitals: 5
Number of bands in calculation: 5
Number of valence electrons: 9
Bands to converge: occupied

... initialized

Initializing position-dependent things.

Density initialized from atomic densities
Creating initial wave functions:
  5 bands from LCAO basis set

       Cs

Positions:
   0 Cs     0.000000    0.000000    0.000000    ( 0.0000,  0.0000,  0.0000)

Unit cell:
           periodic     x           y           z      points  spacing
  1. axis:    yes   -3.025000    3.025000    3.025000    28     0.1528
  2. axis:    yes    3.025000   -3.025000    3.025000    28     0.1528
  3. axis:    yes    3.025000    3.025000   -3.025000    28     0.1528

  Lengths:   5.239454   5.239454   5.239454
  Angles:  109.471221 109.471221 109.471221

Effective grid spacing dv^(1/3) = 0.1715

     iter     time        total  log10-change:
                         energy  eigst   dens
iter:   1 05:19:12  -184.130292
iter:   2 05:19:42  -184.113282  -0.19  -1.08
iter:   3 05:20:16  -183.972896  +0.01  -1.11
iter:   4 05:20:49  -183.881914  -0.41  -1.29
Writing to output.gpw (mode='')

iter:   5 05:21:21  -183.890947  -1.18  -1.57
iter:   6 05:21:53  -183.886970  -1.29  -1.46
iter:   7 05:22:29  -183.903054  -1.31  -1.74
iter:   8 05:23:02  -183.893740  -1.12  -1.62
iter:   9 05:23:34  -183.893077  -1.43  -2.04
Writing to output.gpw (mode='')

iter:  10 05:24:05  -183.892138c -2.13  -2.25
iter:  11 05:24:34  -183.892094c -2.38  -2.31
iter:  12 05:25:05  -183.892174c -2.80  -2.61
iter:  13 05:25:37  -183.892196c -3.00  -2.57
iter:  14 05:26:05  -183.892126c -2.92  -2.52
Writing to output.gpw (mode='')

iter:  15 05:26:35  -183.892111c -3.35  -2.80
iter:  16 05:27:07  -183.892104c -3.46  -3.09
iter:  17 05:27:36  -183.892108c -3.72  -4.07c
iter:  18 05:28:06  -183.892111c -3.91  -4.10c
iter:  19 05:28:35  -183.892113c -4.05  -4.13c
Writing to output.gpw (mode='')

iter:  20 05:29:03  -183.892115c -4.23  -4.13c
iter:  21 05:29:31  -183.892115c -4.39  -4.03c
iter:  22 05:30:00  -183.892116c -4.55  -4.09c
iter:  23 05:30:28  -183.892117c -4.72  -4.16c
iter:  24 05:30:57  -183.892117c -4.88  -4.27c
Writing to output.gpw (mode='')

[...]

iter:  35 05:36:43  -183.892118c -6.60  -5.78c
iter:  36 05:37:15  -183.892118c -6.75  -5.77c
iter:  37 05:37:44  -183.892118c -6.89  -5.84c
iter:  38 05:38:14  -183.892118c -7.06  -5.87c
iter:  39 05:38:45  -183.892118c -7.21  -5.88c
Writing to output.gpw (mode='')

iter:  40 05:39:14  -183.892118c -7.37  -5.88c
iter:  41 05:39:44  -183.892118c -7.51c -5.93c

Converged after 41 iterations.

Dipole moment: (-1.397215, -1.397215, -1.397215) |e|*Ang

Energy contributions relative to reference atoms: (reference = -211800.076486)

Kinetic:         +6.589993
Potential:       -6.282752
External:        +0.000000
XC:            -184.245835
Entropy (-ST):   -0.000027
Local:           +0.046490
Free energy:   -183.892132
Extrapolated:  -183.892118

Showing all kpts
 Kpt  Band  Eigenvalues  Occupancy
  0     2     -8.67937    2.00000
  0     3     -8.65513    2.00000
  0     4      1.07156    1.99995

  1     2     -8.71657    2.00000
  1     3     -8.67016    2.00000
  1     4      2.13844    0.00005

Fermi level: 1.60500

No gap
Writing to output.gpw (mode='')

Forces in eV/Ang:
  0 Cs    0.00000   -0.00000    0.00000