User:   vazumah@f019
Date:   Wed Jan 11 16:26:43 2023
Arch:   x86_64
Pid:    23190
CWD:    /home/vazumah/Python_Projects/Li_NRR/autocad_start/bulk_relaxations/Sr_bulk_fcc
Python: 3.10.6
gpaw:   /home/vazumah/anaconda3/envs/NAME/lib/python3.10/site-packages/gpaw
_gpaw:  /home/vazumah/anaconda3/envs/NAME/lib/python3.10/site-packages/
        _gpaw.cpython-310-x86_64-linux-gnu.so
ase:    /home/vazumah/anaconda3/envs/NAME/lib/python3.10/site-packages/ase (version 3.22.1)
numpy:  /home/vazumah/anaconda3/envs/NAME/lib/python3.10/site-packages/numpy (version 1.23.3)
scipy:  /home/vazumah/anaconda3/envs/NAME/lib/python3.10/site-packages/scipy (version 1.9.1)
units:  Angstrom and eV
cores: 32
OpenMP: True
OMP_NUM_THREADS: 1

Input parameters:
  h: 0.16
  kpts: {size: [2, 2, 1]}
  occupations: {name: fermi-dirac,
                width: 0.05}
  xc: BEEF-vdW

System changes: positions, numbers, cell, pbc, initial_charges, initial_magmoms

Initialize ...

species:
  Sr:
    name: Strontium
    id: 1681cef0785a8ddd65899c0215808a0d
    Z: 38.0
    valence: 10
    core: 28
    charge: 0.0
    file: /home/vazumah/anaconda3/envs/NAME/share/gpaw/Sr.PBE.gz
    compensation charges: {type: gauss,
                           rc: 0.40,
                           lmax: 2}
    cutoffs: {filter: 2.39,
              core: 1.85}
    valence states:
      #              energy  rcut
      - 4s(2.00)   -40.883   1.291
      - 5s(2.00)    -3.525   1.291
      - 4p(6.00)   -22.826   1.291
      -  p           4.386   1.291
      -  d           0.000   1.254

    # Using partial waves for Sr as LCAO basis

Reference energy: -86496.770008  # eV

Spin-paired calculation

Convergence criteria:
 Maximum [total energy] change in last 3 cyles: 0.0005 eV / electron
 Maximum integral of absolute [dens]ity change: 0.0001 electrons / valence electron
 Maximum integral of absolute [eigenst]ate change: 4e-08 eV^2 / valence electron
 Maximum number of scf [iter]ations: 333
 (Square brackets indicate name in SCF output, whereas a 'c' in
 the SCF output indicates the quantity has converged.)

Symmetries present (total): 48

  ( 1  0  0)  ( 1  0  0)  ( 1  0  0)  ( 1  0  0)  ( 1  0 -1)  ( 1  0 -1)
  ( 1  0 -1)  ( 1 -1  0)  ( 0  1  0)  ( 0  0  1)  ( 1  0  0)  ( 1 -1  0)
  ( 1 -1  0)  ( 1  0 -1)  ( 0  0  1)  ( 0  1  0)  ( 1 -1  0)  ( 1  0  0)

  ( 1  0 -1)  ( 1  0 -1)  ( 1 -1  0)  ( 1 -1  0)  ( 1 -1  0)  ( 1 -1  0)
  ( 0  1 -1)  ( 0  0 -1)  ( 1  0  0)  ( 1  0 -1)  ( 0 -1  1)  ( 0 -1  0)
  ( 0  0 -1)  ( 0  1 -1)  ( 1  0 -1)  ( 1  0  0)  ( 0 -1  0)  ( 0 -1  1)

  ( 0  1  0)  ( 0  1  0)  ( 0  1  0)  ( 0  1  0)  ( 0  1 -1)  ( 0  1 -1)
  ( 1  0  0)  ( 0  1 -1)  ( 0  0  1)  (-1  1  0)  ( 1  0 -1)  ( 0  1  0)
  ( 0  0  1)  (-1  1  0)  ( 1  0  0)  ( 0  1 -1)  ( 0  0 -1)  (-1  1  0)

  ( 0  1 -1)  ( 0  1 -1)  ( 0  0  1)  ( 0  0  1)  ( 0  0  1)  ( 0  0  1)
  ( 0  0 -1)  (-1  1  0)  ( 1  0  0)  ( 0  1  0)  ( 0 -1  1)  (-1  0  1)
  ( 1  0 -1)  ( 0  1  0)  ( 0  1  0)  ( 1  0  0)  (-1  0  1)  ( 0 -1  1)

  ( 0  0 -1)  ( 0  0 -1)  ( 0  0 -1)  ( 0  0 -1)  ( 0 -1  1)  ( 0 -1  1)
  ( 1  0 -1)  ( 0  1 -1)  ( 0 -1  0)  (-1  0  0)  ( 1 -1  0)  ( 0  0  1)
  ( 0  1 -1)  ( 1  0 -1)  (-1  0  0)  ( 0 -1  0)  ( 0 -1  0)  (-1  0  1)

  ( 0 -1  1)  ( 0 -1  1)  ( 0 -1  0)  ( 0 -1  0)  ( 0 -1  0)  ( 0 -1  0)
  ( 0 -1  0)  (-1  0  1)  ( 1 -1  0)  ( 0  0 -1)  ( 0 -1  1)  (-1  0  0)
  ( 1 -1  0)  ( 0  0  1)  ( 0 -1  1)  (-1  0  0)  ( 1 -1  0)  ( 0  0 -1)

  (-1  1  0)  (-1  1  0)  (-1  1  0)  (-1  1  0)  (-1  0  1)  (-1  0  1)
  ( 0  1  0)  ( 0  1 -1)  (-1  0  1)  (-1  0  0)  ( 0  0  1)  ( 0 -1  1)
  ( 0  1 -1)  ( 0  1  0)  (-1  0  0)  (-1  0  1)  ( 0 -1  1)  ( 0  0  1)

  (-1  0  1)  (-1  0  1)  (-1  0  0)  (-1  0  0)  (-1  0  0)  (-1  0  0)
  (-1  1  0)  (-1  0  0)  ( 0  0 -1)  ( 0 -1  0)  (-1  1  0)  (-1  0  1)
  (-1  0  0)  (-1  1  0)  ( 0 -1  0)  ( 0  0 -1)  (-1  0  1)  (-1  1  0)
Note: your k-points are not as symmetric as your crystal!

4 k-points: 2 x 2 x 1 Monkhorst-Pack grid
2 k-points in the irreducible part of the Brillouin zone
       k-points in crystal coordinates                weights
   0:     0.25000000   -0.25000000    0.00000000          2/4
   1:     0.25000000    0.25000000    0.00000000          2/4

Occupation numbers: Fermi-Dirac:
  width: 0.0500  # eV

Eigensolver
   Davidson(niter=2)

Densities:
  Coarse grid: 20*20*20 grid
  Fine grid: 40*40*40 grid
  Total Charge: 0.000000

Density mixing:
  Method: separate
  Backend: pulay
  Linear mixing parameter: 0.05
  old densities: 5
  Damping of long wavelength oscillations: 50

Hamiltonian:
  XC and Coulomb potentials evaluated on a 40*40*40 grid
  Using the BEEF-vdW Exchange-Correlation functional
  Interpolation: tri-quintic (5. degree polynomial)
  Poisson solver: FastPoissonSolver using
    Stencil: 12*3+1=37 point O(h^6) finite-difference Laplacian
    FFT axes: [0, 1, 2]
    FST axes: []

XC parameters: BEEF-vdW with 2 nearest neighbor stencil

Total number of cores used: 32
Parallelization over k-points: 2
Domain decomposition: 4 x 2 x 2

Number of atoms: 1
Number of atomic orbitals: 5
Number of bands in calculation: 5
Number of valence electrons: 10
Bands to converge: occupied

... initialized

Initializing position-dependent things.

Density initialized from atomic densities
Creating initial wave functions:
  5 bands from LCAO basis set

       Sr

Positions:
   0 Sr     0.000000    0.000000    0.000000    ( 0.0000,  0.0000,  0.0000)

Unit cell:
           periodic     x           y           z      points  spacing
  1. axis:    yes    0.000000    3.040000    3.040000    20     0.1755
  2. axis:    yes    3.040000    0.000000    3.040000    20     0.1755
  3. axis:    yes    3.040000    3.040000    0.000000    20     0.1755

  Lengths:   4.299209   4.299209   4.299209
  Angles:   60.000000  60.000000  60.000000

Effective grid spacing dv^(1/3) = 0.1915

     iter     time        total  log10-change:
                         energy  eigst   dens
iter:   1 16:27:00  -108.832517
iter:   2 16:27:13  -108.892947  -0.25  -1.47
iter:   3 16:27:15  -108.906449  -0.84  -1.48
iter:   4 16:27:18  -108.917299  -1.01  -1.51
Writing to output.gpw (mode='')

iter:   5 16:27:21  -108.920810  -1.53  -2.04
iter:   6 16:27:22  -108.928103  -1.66  -2.09
iter:   7 16:27:23  -108.921333  -1.95  -2.24
iter:   8 16:27:24  -108.922002  -2.21  -2.79
iter:   9 16:27:25  -108.922226c -2.55  -2.62
Writing to output.gpw (mode='')

iter:  10 16:27:27  -108.922064c -2.81  -2.67
iter:  11 16:27:29  -108.922131c -3.08  -3.78
iter:  12 16:27:30  -108.922150c -3.31  -3.55
iter:  13 16:27:32  -108.922169c -3.52  -3.67
iter:  14 16:27:34  -108.922179c -3.74  -3.56
Writing to output.gpw (mode='')

[...]

iter:  20 16:27:45  -108.922196c -5.04  -3.61
iter:  21 16:27:46  -108.922203c -5.17  -3.45
iter:  22 16:27:47  -108.922204c -5.31  -3.62
iter:  23 16:27:47  -108.922205c -5.57  -3.69
iter:  24 16:27:49  -108.922205c -5.77  -3.74
Writing to output.gpw (mode='')

iter:  25 16:27:50  -108.922205c -5.96  -3.75
iter:  26 16:27:51  -108.922205c -6.12  -3.80
iter:  27 16:27:51  -108.922202c -5.66  -3.87
iter:  28 16:27:53  -108.922206c -6.01  -3.42
iter:  29 16:27:55  -108.922205c -6.80  -4.38c
Writing to output.gpw (mode='')

iter:  30 16:27:56  -108.922205c -6.71  -4.42c
iter:  31 16:27:57  -108.922205c -7.06  -4.47c
iter:  32 16:27:58  -108.922205c -7.30  -4.96c
iter:  33 16:27:59  -108.922205c -7.70c -5.07c

Converged after 33 iterations.

Dipole moment: (-1.730457, -1.730457, -1.730457) |e|*Ang

Energy contributions relative to reference atoms: (reference = -86496.770008)

Kinetic:        +11.269029
Potential:      -10.385537
External:        +0.000000
XC:            -109.677806
Entropy (-ST):   -0.000000
Local:           -0.127891
Free energy:   -108.922205
Extrapolated:  -108.922205

Showing all kpts
 Kpt  Band  Eigenvalues  Occupancy
  0     3    -15.60030    2.00000
  0     4      1.92912    2.00000

  1     3    -15.60775    2.00000
  1     4      0.90739    2.00000

Fermi level: inf

Writing to output.gpw (mode='')

Forces in eV/Ang:
  0 Sr    0.00000    0.00000   -0.00000