User:   vazumah@f003
Date:   Wed Nov 23 02:11:23 2022
Arch:   x86_64
Pid:    1982
CWD:    /home/vazumah/Python_Projects/Li_NRR/autocad_start/bulk_relaxations/Ba_bulk_bcc
Python: 3.10.6
gpaw:   /home/vazumah/anaconda3/envs/NAME/lib/python3.10/site-packages/gpaw
_gpaw:  /home/vazumah/anaconda3/envs/NAME/lib/python3.10/site-packages/
        _gpaw.cpython-310-x86_64-linux-gnu.so
ase:    /home/vazumah/anaconda3/envs/NAME/lib/python3.10/site-packages/ase (version 3.22.1)
numpy:  /home/vazumah/anaconda3/envs/NAME/lib/python3.10/site-packages/numpy (version 1.23.3)
scipy:  /home/vazumah/anaconda3/envs/NAME/lib/python3.10/site-packages/scipy (version 1.9.1)
units:  Angstrom and eV
cores: 32
OpenMP: True
OMP_NUM_THREADS: 1

Input parameters:
  h: 0.16
  kpts: {size: [9, 9, 1]}
  occupations: {name: fermi-dirac,
                width: 0.05}
  xc: BEEF-vdW

System changes: positions, numbers, cell, pbc, initial_charges, initial_magmoms

Initialize ...

species:
  Ba:
    name: Barium
    id: 3c0c69fceb001740075f2c7491402c79
    Z: 56.0
    valence: 10
    core: 46
    charge: 0.0
    file: /home/vazumah/anaconda3/envs/NAME/share/gpaw/Ba.PBE.gz
    compensation charges: {type: gauss,
                           rc: 0.37,
                           lmax: 2}
    cutoffs: {filter: 2.06,
              core: 2.33}
    valence states:
      #              energy  rcut
      - 5s(2.00)   -33.644   1.164
      - 6s(2.00)    -3.229   1.164
      - 5p(6.00)   -18.744   1.164
      -  p           0.000   1.164
      -  d           0.000   1.164
      -  d          27.211   1.164

    # Using partial waves for Ba as LCAO basis

Reference energy: -221277.842511  # eV

Spin-paired calculation

Convergence criteria:
 Maximum [total energy] change in last 3 cyles: 0.0005 eV / electron
 Maximum integral of absolute [dens]ity change: 0.0001 electrons / valence electron
 Maximum integral of absolute [eigenst]ate change: 4e-08 eV^2 / valence electron
 Maximum number of scf [iter]ations: 333
 (Square brackets indicate name in SCF output, whereas a 'c' in
 the SCF output indicates the quantity has converged.)

Symmetries present (total): 48

  ( 1  1  1)  ( 1  1  1)  ( 1  1  1)  ( 1  1  1)  ( 1  1  1)  ( 1  1  1)
  ( 0  0 -1)  ( 0  0 -1)  ( 0 -1  0)  ( 0 -1  0)  (-1  0  0)  (-1  0  0)
  ( 0 -1  0)  (-1  0  0)  ( 0  0 -1)  (-1  0  0)  ( 0  0 -1)  ( 0 -1  0)

[...]

  ( 0 -1  0)  ( 0 -1  0)  ( 0 -1  0)  ( 0 -1  0)  ( 0 -1  0)  ( 0 -1  0)
  ( 1  1  1)  ( 1  1  1)  ( 0  0 -1)  ( 0  0 -1)  (-1  0  0)  (-1  0  0)
  ( 0  0 -1)  (-1  0  0)  ( 1  1  1)  (-1  0  0)  ( 1  1  1)  ( 0  0 -1)

  (-1  0  0)  (-1  0  0)  (-1  0  0)  (-1  0  0)  (-1  0  0)  (-1  0  0)
  ( 1  1  1)  ( 1  1  1)  ( 0  0 -1)  ( 0  0 -1)  ( 0 -1  0)  ( 0 -1  0)
  ( 0  0 -1)  ( 0 -1  0)  ( 1  1  1)  ( 0 -1  0)  ( 1  1  1)  ( 0  0 -1)

  (-1 -1 -1)  (-1 -1 -1)  (-1 -1 -1)  (-1 -1 -1)  (-1 -1 -1)  (-1 -1 -1)
  ( 1  0  0)  ( 1  0  0)  ( 0  1  0)  ( 0  1  0)  ( 0  0  1)  ( 0  0  1)
  ( 0  1  0)  ( 0  0  1)  ( 1  0  0)  ( 0  0  1)  ( 1  0  0)  ( 0  1  0)
Note: your k-points are not as symmetric as your crystal!

81 k-points: 9 x 9 x 1 Monkhorst-Pack grid
12 k-points in the irreducible part of the Brillouin zone
       k-points in crystal coordinates                weights
   0:     0.00000000    0.00000000    0.00000000          1/81
   1:     0.11111111    0.00000000    0.00000000          6/81
   2:     0.22222222   -0.11111111    0.00000000          6/81
   3:     0.22222222    0.00000000    0.00000000          6/81
   4:     0.33333333   -0.11111111    0.00000000         12/81
   5:     0.33333333    0.00000000    0.00000000          6/81
   6:     0.33333333    0.33333333    0.00000000          2/81
   7:     0.44444444   -0.22222222    0.00000000          6/81
   8:     0.44444444   -0.11111111    0.00000000         12/81
   9:     0.44444444    0.00000000    0.00000000          6/81
          ...
  11:     0.44444444    0.44444444    0.00000000          6/81

Occupation numbers: Fermi-Dirac:
  width: 0.0500  # eV

Eigensolver
   Davidson(niter=2)

Densities:
  Coarse grid: 24*24*24 grid
  Fine grid: 48*48*48 grid
  Total Charge: 0.000000

Density mixing:
  Method: separate
  Backend: pulay
  Linear mixing parameter: 0.05
  old densities: 5
  Damping of long wavelength oscillations: 50

Hamiltonian:
  XC and Coulomb potentials evaluated on a 48*48*48 grid
  Using the BEEF-vdW Exchange-Correlation functional
  Interpolation: tri-quintic (5. degree polynomial)
  Poisson solver: FastPoissonSolver using
    Stencil: 8*3+1=25 point O(h^6) finite-difference Laplacian
    FFT axes: [0, 1, 2]
    FST axes: []

XC parameters: BEEF-vdW with 2 nearest neighbor stencil

Total number of cores used: 32
Parallelization over k-points: 4
Domain decomposition: 2 x 2 x 2

Number of atoms: 1
Number of atomic orbitals: 5
Number of bands in calculation: 5
Number of valence electrons: 10
Bands to converge: occupied

... initialized

Initializing position-dependent things.

Density initialized from atomic densities
Creating initial wave functions:
  5 bands from LCAO basis set

       Ba

Positions:
   0 Ba     0.000000    0.000000    0.000000    ( 0.0000,  0.0000,  0.0000)

Unit cell:
           periodic     x           y           z      points  spacing
  1. axis:    yes   -2.510000    2.510000    2.510000    24     0.1479
  2. axis:    yes    2.510000   -2.510000    2.510000    24     0.1479
  3. axis:    yes    2.510000    2.510000   -2.510000    24     0.1479

  Lengths:   4.347448   4.347448   4.347448
  Angles:  109.471221 109.471221 109.471221

Effective grid spacing dv^(1/3) = 0.1660

     iter     time        total  log10-change:
                         energy  eigst   dens
iter:   1 02:11:31  -189.517711
iter:   2 02:11:31  -189.647464  +0.61  -1.23
iter:   3 02:11:32  -189.630151  +0.44  -1.27
iter:   4 02:11:32  -189.634889  +0.35  -1.50
Writing to output.gpw (mode='')

iter:   5 02:11:33  -189.670269  +0.05  -2.05
iter:   6 02:11:34  -189.696787  -0.17  -2.17
iter:   7 02:11:34  -189.707591  -0.21  -1.96
iter:   8 02:11:35  -189.721771  -0.37  -2.28
iter:   9 02:11:35  -189.722971  -0.64  -1.93
Writing to output.gpw (mode='')

iter:  10 02:11:36  -189.726717c -0.82  -2.42
iter:  11 02:11:36  -189.729666  -1.01  -2.55
iter:  12 02:11:37  -189.731616c -1.15  -2.24
iter:  13 02:11:37  -189.733189c -1.31  -2.43
iter:  14 02:11:38  -189.734130c -1.53  -3.07
Writing to output.gpw (mode='')

iter:  15 02:11:39  -189.734944c -1.63  -2.52
iter:  16 02:11:39  -189.735645c -1.69  -2.80
iter:  17 02:11:40  -189.736155c -1.81  -3.21
iter:  18 02:11:40  -189.736595c -1.85  -3.44
iter:  19 02:11:41  -189.736896c -2.04  -3.37
Writing to output.gpw (mode='')

[...]

iter:  30 02:11:47  -189.738461c -2.86  -3.71
iter:  31 02:11:47  -189.738499c -2.98  -3.73
iter:  32 02:11:48  -189.738540c -3.02  -3.39
iter:  33 02:11:48  -189.738562c -3.14  -3.50
iter:  34 02:11:49  -189.738598c -3.24  -2.96
Writing to output.gpw (mode='')

iter:  35 02:11:50  -189.738624c -3.29  -3.35
iter:  36 02:11:50  -189.738646c -3.36  -4.07c
iter:  37 02:11:51  -189.738676c -3.16  -4.24c
iter:  38 02:11:51  -189.738692c -3.58  -3.99
iter:  39 02:11:52  -189.738713c -3.36  -4.05c
Writing to output.gpw (mode='')

iter:  40 02:11:52  -189.738729c -3.59  -4.28c
iter:  41 02:11:53  -189.738744c -3.62  -4.16c
iter:  42 02:11:53  -189.738753c -3.92  -4.39c
iter:  43 02:11:54  -189.738760c -4.02  -4.39c
iter:  44 02:11:54  -189.738766c -4.10  -4.44c
Writing to output.gpw (mode='')

[...]

iter: 110 02:12:31  -189.738812c -7.04  -6.49c
iter: 111 02:12:31  -189.738812c -7.26  -6.49c
iter: 112 02:12:32  -189.738812c -7.24  -6.33c
iter: 113 02:12:32  -189.738812c -7.30  -6.32c
iter: 114 02:12:33  -189.738812c -7.33  -6.36c
Writing to output.gpw (mode='')

iter: 115 02:12:33  -189.738812c -7.23  -6.36c
iter: 116 02:12:34  -189.738812c -7.29  -6.33c
iter: 117 02:12:35  -189.738812c -7.44c -6.07c

Converged after 117 iterations.

Dipole moment: (-1.027742, -1.027742, -1.027742) |e|*Ang

Energy contributions relative to reference atoms: (reference = -221277.842511)

Kinetic:         +8.374458
Potential:       -6.502333
External:        +0.000000
XC:            -191.416750
Entropy (-ST):   -0.000000
Local:           -0.194188
Free energy:   -189.738812
Extrapolated:  -189.738812

Showing only first 2 kpts
 Kpt  Band  Eigenvalues  Occupancy
  0     3     -9.11568    2.00000
  0     4      2.12180    2.00000

  1     3     -9.11596    2.00000
  1     4      2.34685    2.00000

Fermi level: inf

Writing to output.gpw (mode='')

Forces in eV/Ang:
  0 Ba   -0.00000   -0.00000    0.00000