User:   vazumah@f019
Date:   Wed Jan 11 16:25:15 2023
Arch:   x86_64
Pid:    23002
CWD:    /home/vazumah/Python_Projects/Li_NRR/autocad_start/bulk_relaxations/Ca_bulk_fcc
Python: 3.10.6
gpaw:   /home/vazumah/anaconda3/envs/NAME/lib/python3.10/site-packages/gpaw
_gpaw:  /home/vazumah/anaconda3/envs/NAME/lib/python3.10/site-packages/
        _gpaw.cpython-310-x86_64-linux-gnu.so
ase:    /home/vazumah/anaconda3/envs/NAME/lib/python3.10/site-packages/ase (version 3.22.1)
numpy:  /home/vazumah/anaconda3/envs/NAME/lib/python3.10/site-packages/numpy (version 1.23.3)
scipy:  /home/vazumah/anaconda3/envs/NAME/lib/python3.10/site-packages/scipy (version 1.9.1)
units:  Angstrom and eV
cores: 32
OpenMP: True
OMP_NUM_THREADS: 1

Input parameters:
  h: 0.16
  kpts: {size: [2, 2, 1]}
  occupations: {name: fermi-dirac,
                width: 0.05}
  xc: BEEF-vdW

System changes: positions, numbers, cell, pbc, initial_charges, initial_magmoms

Initialize ...

species:
  Ca:
    name: Calcium
    id: 0641b8f64fa1d43c6d3de45527ace046
    Z: 20.0
    valence: 10
    core: 10
    charge: 0.0
    file: /home/vazumah/anaconda3/envs/NAME/share/gpaw/Ca.PBE.gz
    compensation charges: {type: gauss,
                           rc: 0.37,
                           lmax: 2}
    cutoffs: {filter: 2.10,
              core: 1.17}
    valence states:
      #              energy  rcut
      - 3s(2.00)   -47.086   1.175
      - 4s(2.00)    -3.766   1.175
      - 3p(6.00)   -28.008   1.154
      -  p          -0.797   1.154
      -  d           0.000   0.937

    # Using partial waves for Ca as LCAO basis

Reference energy: -18510.869232  # eV

Spin-paired calculation

Convergence criteria:
 Maximum [total energy] change in last 3 cyles: 0.0005 eV / electron
 Maximum integral of absolute [dens]ity change: 0.0001 electrons / valence electron
 Maximum integral of absolute [eigenst]ate change: 4e-08 eV^2 / valence electron
 Maximum number of scf [iter]ations: 333
 (Square brackets indicate name in SCF output, whereas a 'c' in
 the SCF output indicates the quantity has converged.)

Symmetries present (total): 48

  ( 1  0  0)  ( 1  0  0)  ( 1  0  0)  ( 1  0  0)  ( 1  0 -1)  ( 1  0 -1)
  ( 1  0 -1)  ( 1 -1  0)  ( 0  1  0)  ( 0  0  1)  ( 1  0  0)  ( 1 -1  0)
  ( 1 -1  0)  ( 1  0 -1)  ( 0  0  1)  ( 0  1  0)  ( 1 -1  0)  ( 1  0  0)

  ( 1  0 -1)  ( 1  0 -1)  ( 1 -1  0)  ( 1 -1  0)  ( 1 -1  0)  ( 1 -1  0)
  ( 0  1 -1)  ( 0  0 -1)  ( 1  0  0)  ( 1  0 -1)  ( 0 -1  1)  ( 0 -1  0)
  ( 0  0 -1)  ( 0  1 -1)  ( 1  0 -1)  ( 1  0  0)  ( 0 -1  0)  ( 0 -1  1)

  ( 0  1  0)  ( 0  1  0)  ( 0  1  0)  ( 0  1  0)  ( 0  1 -1)  ( 0  1 -1)
  ( 1  0  0)  ( 0  1 -1)  ( 0  0  1)  (-1  1  0)  ( 1  0 -1)  ( 0  1  0)
  ( 0  0  1)  (-1  1  0)  ( 1  0  0)  ( 0  1 -1)  ( 0  0 -1)  (-1  1  0)

  ( 0  1 -1)  ( 0  1 -1)  ( 0  0  1)  ( 0  0  1)  ( 0  0  1)  ( 0  0  1)
  ( 0  0 -1)  (-1  1  0)  ( 1  0  0)  ( 0  1  0)  ( 0 -1  1)  (-1  0  1)
  ( 1  0 -1)  ( 0  1  0)  ( 0  1  0)  ( 1  0  0)  (-1  0  1)  ( 0 -1  1)

  ( 0  0 -1)  ( 0  0 -1)  ( 0  0 -1)  ( 0  0 -1)  ( 0 -1  1)  ( 0 -1  1)
  ( 1  0 -1)  ( 0  1 -1)  ( 0 -1  0)  (-1  0  0)  ( 1 -1  0)  ( 0  0  1)
  ( 0  1 -1)  ( 1  0 -1)  (-1  0  0)  ( 0 -1  0)  ( 0 -1  0)  (-1  0  1)

  ( 0 -1  1)  ( 0 -1  1)  ( 0 -1  0)  ( 0 -1  0)  ( 0 -1  0)  ( 0 -1  0)
  ( 0 -1  0)  (-1  0  1)  ( 1 -1  0)  ( 0  0 -1)  ( 0 -1  1)  (-1  0  0)
  ( 1 -1  0)  ( 0  0  1)  ( 0 -1  1)  (-1  0  0)  ( 1 -1  0)  ( 0  0 -1)

  (-1  1  0)  (-1  1  0)  (-1  1  0)  (-1  1  0)  (-1  0  1)  (-1  0  1)
  ( 0  1  0)  ( 0  1 -1)  (-1  0  1)  (-1  0  0)  ( 0  0  1)  ( 0 -1  1)
  ( 0  1 -1)  ( 0  1  0)  (-1  0  0)  (-1  0  1)  ( 0 -1  1)  ( 0  0  1)

  (-1  0  1)  (-1  0  1)  (-1  0  0)  (-1  0  0)  (-1  0  0)  (-1  0  0)
  (-1  1  0)  (-1  0  0)  ( 0  0 -1)  ( 0 -1  0)  (-1  1  0)  (-1  0  1)
  (-1  0  0)  (-1  1  0)  ( 0 -1  0)  ( 0  0 -1)  (-1  0  1)  (-1  1  0)
Note: your k-points are not as symmetric as your crystal!

4 k-points: 2 x 2 x 1 Monkhorst-Pack grid
2 k-points in the irreducible part of the Brillouin zone
       k-points in crystal coordinates                weights
   0:     0.25000000   -0.25000000    0.00000000          2/4
   1:     0.25000000    0.25000000    0.00000000          2/4

Occupation numbers: Fermi-Dirac:
  width: 0.0500  # eV

Eigensolver
   Davidson(niter=2)

Densities:
  Coarse grid: 20*20*20 grid
  Fine grid: 40*40*40 grid
  Total Charge: 0.000000

Density mixing:
  Method: separate
  Backend: pulay
  Linear mixing parameter: 0.05
  old densities: 5
  Damping of long wavelength oscillations: 50

Hamiltonian:
  XC and Coulomb potentials evaluated on a 40*40*40 grid
  Using the BEEF-vdW Exchange-Correlation functional
  Interpolation: tri-quintic (5. degree polynomial)
  Poisson solver: FastPoissonSolver using
    Stencil: 12*3+1=37 point O(h^6) finite-difference Laplacian
    FFT axes: [0, 1, 2]
    FST axes: []

XC parameters: BEEF-vdW with 2 nearest neighbor stencil

Total number of cores used: 32
Parallelization over k-points: 2
Domain decomposition: 4 x 2 x 2

Number of atoms: 1
Number of atomic orbitals: 5
Number of bands in calculation: 5
Number of valence electrons: 10
Bands to converge: occupied

... initialized

Initializing position-dependent things.

Density initialized from atomic densities
Creating initial wave functions:
  5 bands from LCAO basis set

       Ca

Positions:
   0 Ca     0.000000    0.000000    0.000000    ( 0.0000,  0.0000,  0.0000)

Unit cell:
           periodic     x           y           z      points  spacing
  1. axis:    yes    0.000000    2.790000    2.790000    20     0.1611
  2. axis:    yes    2.790000    0.000000    2.790000    20     0.1611
  3. axis:    yes    2.790000    2.790000    0.000000    20     0.1611

  Lengths:   3.945656   3.945656   3.945656
  Angles:   60.000000  60.000000  60.000000

Effective grid spacing dv^(1/3) = 0.1758

     iter     time        total  log10-change:
                         energy  eigst   dens
iter:   1 16:25:32   -45.704057
iter:   2 16:25:33   -45.773958  -0.11  -1.47
iter:   3 16:25:34   -45.798713  -0.56  -1.48
iter:   4 16:25:35   -45.827712  -0.73  -1.53
Writing to output.gpw (mode='')

iter:   5 16:25:36   -45.835123  -1.03  -2.30
iter:   6 16:25:37   -45.833455  -1.48  -2.34
iter:   7 16:25:38   -45.834305c -1.51  -2.51
iter:   8 16:25:40   -45.835324c -1.74  -2.67
iter:   9 16:25:41   -45.836554c -1.89  -2.62
Writing to output.gpw (mode='')

iter:  10 16:25:42   -45.835432c -2.34  -2.60
iter:  11 16:25:43   -45.835534c -2.59  -3.26
iter:  12 16:25:44   -45.835589c -2.83  -3.29
iter:  13 16:25:45   -45.835647c -3.01  -3.47
iter:  14 16:25:46   -45.835687c -3.19  -3.34
Writing to output.gpw (mode='')

[...]

iter:  20 16:25:53   -45.835758c -4.16  -3.55
iter:  21 16:25:54   -45.835759c -4.33  -3.75
iter:  22 16:25:55   -45.835760c -4.46  -3.58
iter:  23 16:25:56   -45.835762c -4.62  -3.58
iter:  24 16:25:57   -45.835764c -4.77  -3.60
Writing to output.gpw (mode='')

iter:  25 16:25:58   -45.835768c -4.77  -3.66
iter:  26 16:25:59   -45.835767c -5.00  -3.78
iter:  27 16:26:00   -45.835767c -4.80  -3.79
iter:  28 16:26:01   -45.835766c -5.20  -3.62
iter:  29 16:26:02   -45.835766c -5.43  -4.49c
Writing to output.gpw (mode='')

iter:  30 16:26:03   -45.835766c -5.55  -4.70c
iter:  31 16:26:04   -45.835766c -5.70  -4.14c
iter:  32 16:26:05   -45.835766c -5.88  -4.95c
iter:  33 16:26:07   -45.835766c -6.04  -5.10c
iter:  34 16:26:08   -45.835766c -6.19  -5.13c
Writing to output.gpw (mode='')

iter:  35 16:26:09   -45.835766c -6.34  -4.92c
iter:  36 16:26:10   -45.835766c -6.50  -4.69c
iter:  37 16:26:12   -45.835766c -6.67  -4.95c
iter:  38 16:26:12   -45.835766c -6.82  -5.45c
iter:  39 16:26:14   -45.835766c -6.95  -5.21c
Writing to output.gpw (mode='')

iter:  40 16:26:15   -45.835766c -7.15  -4.76c
iter:  41 16:26:16   -45.835766c -7.28  -5.50c
iter:  42 16:26:18   -45.835766c -7.46c -5.39c

Converged after 42 iterations.

Dipole moment: (-1.317309, -1.317309, -1.317309) |e|*Ang

Energy contributions relative to reference atoms: (reference = -18510.869232)

Kinetic:        +11.782622
Potential:      -10.708594
External:        +0.000000
XC:             -46.454333
Entropy (-ST):   -0.000000
Local:           -0.455461
Free energy:    -45.835766
Extrapolated:   -45.835766

Showing all kpts
 Kpt  Band  Eigenvalues  Occupancy
  0     3    -20.71572    2.00000
  0     4      1.48616    2.00000

  1     3    -20.72047    2.00000
  1     4      0.35659    2.00000

Fermi level: inf

Writing to output.gpw (mode='')

Forces in eV/Ang:
  0 Ca    0.00000    0.00000   -0.00000