User:   vazumah@f002
Date:   Wed Nov 23 02:11:23 2022
Arch:   x86_64
Pid:    13853
CWD:    /home/vazumah/Python_Projects/Li_NRR/autocad_start/bulk_relaxations/Ca_bulk_fcc
Python: 3.10.6
gpaw:   /home/vazumah/anaconda3/envs/NAME/lib/python3.10/site-packages/gpaw
_gpaw:  /home/vazumah/anaconda3/envs/NAME/lib/python3.10/site-packages/
        _gpaw.cpython-310-x86_64-linux-gnu.so
ase:    /home/vazumah/anaconda3/envs/NAME/lib/python3.10/site-packages/ase (version 3.22.1)
numpy:  /home/vazumah/anaconda3/envs/NAME/lib/python3.10/site-packages/numpy (version 1.23.3)
scipy:  /home/vazumah/anaconda3/envs/NAME/lib/python3.10/site-packages/scipy (version 1.9.1)
units:  Angstrom and eV
cores: 32
OpenMP: True
OMP_NUM_THREADS: 1

Input parameters:
  h: 0.16
  kpts: {size: [9, 9, 1]}
  occupations: {name: fermi-dirac,
                width: 0.05}
  xc: BEEF-vdW

System changes: positions, numbers, cell, pbc, initial_charges, initial_magmoms

Initialize ...

species:
  Ca:
    name: Calcium
    id: 0641b8f64fa1d43c6d3de45527ace046
    Z: 20.0
    valence: 10
    core: 10
    charge: 0.0
    file: /home/vazumah/anaconda3/envs/NAME/share/gpaw/Ca.PBE.gz
    compensation charges: {type: gauss,
                           rc: 0.37,
                           lmax: 2}
    cutoffs: {filter: 2.10,
              core: 1.17}
    valence states:
      #              energy  rcut
      - 3s(2.00)   -47.086   1.175
      - 4s(2.00)    -3.766   1.175
      - 3p(6.00)   -28.008   1.154
      -  p          -0.797   1.154
      -  d           0.000   0.937

    # Using partial waves for Ca as LCAO basis

Reference energy: -18510.869232  # eV

Spin-paired calculation

Convergence criteria:
 Maximum [total energy] change in last 3 cyles: 0.0005 eV / electron
 Maximum integral of absolute [dens]ity change: 0.0001 electrons / valence electron
 Maximum integral of absolute [eigenst]ate change: 4e-08 eV^2 / valence electron
 Maximum number of scf [iter]ations: 333
 (Square brackets indicate name in SCF output, whereas a 'c' in
 the SCF output indicates the quantity has converged.)

Symmetries present (total): 48

  ( 1  0  0)  ( 1  0  0)  ( 1  0  0)  ( 1  0  0)  ( 1  0 -1)  ( 1  0 -1)
  ( 1  0 -1)  ( 1 -1  0)  ( 0  1  0)  ( 0  0  1)  ( 1  0  0)  ( 1 -1  0)
  ( 1 -1  0)  ( 1  0 -1)  ( 0  0  1)  ( 0  1  0)  ( 1 -1  0)  ( 1  0  0)

  ( 1  0 -1)  ( 1  0 -1)  ( 1 -1  0)  ( 1 -1  0)  ( 1 -1  0)  ( 1 -1  0)
  ( 0  1 -1)  ( 0  0 -1)  ( 1  0  0)  ( 1  0 -1)  ( 0 -1  1)  ( 0 -1  0)
  ( 0  0 -1)  ( 0  1 -1)  ( 1  0 -1)  ( 1  0  0)  ( 0 -1  0)  ( 0 -1  1)

  ( 0  1  0)  ( 0  1  0)  ( 0  1  0)  ( 0  1  0)  ( 0  1 -1)  ( 0  1 -1)
  ( 1  0  0)  ( 0  1 -1)  ( 0  0  1)  (-1  1  0)  ( 1  0 -1)  ( 0  1  0)
  ( 0  0  1)  (-1  1  0)  ( 1  0  0)  ( 0  1 -1)  ( 0  0 -1)  (-1  1  0)

  ( 0  1 -1)  ( 0  1 -1)  ( 0  0  1)  ( 0  0  1)  ( 0  0  1)  ( 0  0  1)
  ( 0  0 -1)  (-1  1  0)  ( 1  0  0)  ( 0  1  0)  ( 0 -1  1)  (-1  0  1)
  ( 1  0 -1)  ( 0  1  0)  ( 0  1  0)  ( 1  0  0)  (-1  0  1)  ( 0 -1  1)

  ( 0  0 -1)  ( 0  0 -1)  ( 0  0 -1)  ( 0  0 -1)  ( 0 -1  1)  ( 0 -1  1)
  ( 1  0 -1)  ( 0  1 -1)  ( 0 -1  0)  (-1  0  0)  ( 1 -1  0)  ( 0  0  1)
  ( 0  1 -1)  ( 1  0 -1)  (-1  0  0)  ( 0 -1  0)  ( 0 -1  0)  (-1  0  1)

  ( 0 -1  1)  ( 0 -1  1)  ( 0 -1  0)  ( 0 -1  0)  ( 0 -1  0)  ( 0 -1  0)
  ( 0 -1  0)  (-1  0  1)  ( 1 -1  0)  ( 0  0 -1)  ( 0 -1  1)  (-1  0  0)
  ( 1 -1  0)  ( 0  0  1)  ( 0 -1  1)  (-1  0  0)  ( 1 -1  0)  ( 0  0 -1)

  (-1  1  0)  (-1  1  0)  (-1  1  0)  (-1  1  0)  (-1  0  1)  (-1  0  1)
  ( 0  1  0)  ( 0  1 -1)  (-1  0  1)  (-1  0  0)  ( 0  0  1)  ( 0 -1  1)
  ( 0  1 -1)  ( 0  1  0)  (-1  0  0)  (-1  0  1)  ( 0 -1  1)  ( 0  0  1)

  (-1  0  1)  (-1  0  1)  (-1  0  0)  (-1  0  0)  (-1  0  0)  (-1  0  0)
  (-1  1  0)  (-1  0  0)  ( 0  0 -1)  ( 0 -1  0)  (-1  1  0)  (-1  0  1)
  (-1  0  0)  (-1  1  0)  ( 0 -1  0)  ( 0  0 -1)  (-1  0  1)  (-1  1  0)
Note: your k-points are not as symmetric as your crystal!

81 k-points: 9 x 9 x 1 Monkhorst-Pack grid
25 k-points in the irreducible part of the Brillouin zone
       k-points in crystal coordinates                weights
   0:     0.00000000    0.00000000    0.00000000          1/81
   1:     0.11111111   -0.11111111    0.00000000          2/81
   2:     0.11111111    0.00000000    0.00000000          4/81
   3:     0.11111111    0.11111111    0.00000000          2/81
   4:     0.22222222   -0.22222222    0.00000000          2/81
   5:     0.22222222   -0.11111111    0.00000000          4/81
   6:     0.22222222    0.00000000    0.00000000          4/81
   7:     0.22222222    0.11111111    0.00000000          4/81
   8:     0.22222222    0.22222222    0.00000000          2/81
   9:     0.33333333   -0.33333333    0.00000000          2/81
          ...
  24:     0.44444444    0.44444444    0.00000000          2/81

Occupation numbers: Fermi-Dirac:
  width: 0.0500  # eV

Eigensolver
   Davidson(niter=2)

Densities:
  Coarse grid: 20*20*20 grid
  Fine grid: 40*40*40 grid
  Total Charge: 0.000000

Density mixing:
  Method: separate
  Backend: pulay
  Linear mixing parameter: 0.05
  old densities: 5
  Damping of long wavelength oscillations: 50

Hamiltonian:
  XC and Coulomb potentials evaluated on a 40*40*40 grid
  Using the BEEF-vdW Exchange-Correlation functional
  Interpolation: tri-quintic (5. degree polynomial)
  Poisson solver: FastPoissonSolver using
    Stencil: 12*3+1=37 point O(h^6) finite-difference Laplacian
    FFT axes: [0, 1, 2]
    FST axes: []

XC parameters: BEEF-vdW with 2 nearest neighbor stencil

Total number of cores used: 32
Parallelization over k-points: 2
Domain decomposition: 4 x 2 x 2

Number of atoms: 1
Number of atomic orbitals: 5
Number of bands in calculation: 5
Number of valence electrons: 10
Bands to converge: occupied

... initialized

Initializing position-dependent things.

Density initialized from atomic densities
Creating initial wave functions:
  5 bands from LCAO basis set

       Ca

Positions:
   0 Ca     0.000000    0.000000    0.000000    ( 0.0000,  0.0000,  0.0000)

Unit cell:
           periodic     x           y           z      points  spacing
  1. axis:    yes    0.000000    2.790000    2.790000    20     0.1611
  2. axis:    yes    2.790000    0.000000    2.790000    20     0.1611
  3. axis:    yes    2.790000    2.790000    0.000000    20     0.1611

  Lengths:   3.945656   3.945656   3.945656
  Angles:   60.000000  60.000000  60.000000

Effective grid spacing dv^(1/3) = 0.1758

     iter     time        total  log10-change:
                         energy  eigst   dens
iter:   1 02:11:31   -44.983796
iter:   2 02:11:40   -45.172706  +0.38  -1.56
iter:   3 02:11:47   -45.262634  +0.05  -1.58
iter:   4 02:11:55   -45.328102  -0.15  -1.63
Writing to output.gpw (mode='')

iter:   5 02:12:03   -45.358040  -0.40  -2.18
iter:   6 02:12:10   -45.360697  -0.82  -2.23
iter:   7 02:12:18   -45.368074  -0.96  -2.48
iter:   8 02:12:20   -45.373411  -1.10  -2.40
iter:   9 02:12:21   -45.380566  -1.13  -2.29
Writing to output.gpw (mode='')

iter:  10 02:12:22   -45.375716  -1.49  -2.28
iter:  11 02:12:23   -45.377111c -1.61  -2.97
iter:  12 02:12:24   -45.377990c -1.70  -2.76
iter:  13 02:12:25   -45.378893c -1.78  -2.71
iter:  14 02:12:26   -45.379725c -1.84  -2.64
Writing to output.gpw (mode='')

iter:  15 02:12:27   -45.380396c -1.90  -2.82
iter:  16 02:12:28   -45.381022c -1.95  -2.68
iter:  17 02:12:28   -45.381561c -2.01  -2.74
iter:  18 02:12:29   -45.382003c -2.06  -2.75
iter:  19 02:12:30   -45.382390c -2.11  -2.73
Writing to output.gpw (mode='')

[...]

iter:  40 02:12:52   -45.385500c -3.07  -2.88
iter:  41 02:12:53   -45.385539c -3.12  -2.93
iter:  42 02:12:54   -45.385579c -3.12  -3.00
iter:  43 02:12:55   -45.385609c -3.18  -3.10
iter:  44 02:12:56   -45.385642c -3.21  -3.13
Writing to output.gpw (mode='')

iter:  45 02:13:03   -45.385666c -3.24  -3.92
iter:  46 02:13:04   -45.385689c -3.28  -4.08c
iter:  47 02:13:05   -45.385710c -3.32  -4.14c
iter:  48 02:13:09   -45.385727c -3.38  -4.19c
iter:  49 02:13:10   -45.385744c -3.42  -4.15c
Writing to output.gpw (mode='')

iter:  50 02:13:11   -45.385758c -3.46  -4.26c
iter:  51 02:13:44   -45.385765c -3.51  -4.28c
iter:  52 02:14:08   -45.385783c -3.54  -3.15
iter:  53 02:14:21   -45.385794c -3.57  -4.45c
iter:  54 02:14:29   -45.385804c -3.63  -4.22c
Writing to output.gpw (mode='')

[...]

iter:  60 02:15:01   -45.385850c -3.89  -4.33c
iter:  61 02:15:03   -45.385855c -3.93  -3.92
iter:  62 02:15:05   -45.385860c -3.98  -4.42c
iter:  63 02:15:06   -45.385864c -3.99  -4.68c
iter:  64 02:15:08   -45.385869c -4.01  -4.89c
Writing to output.gpw (mode='')

iter:  65 02:15:11   -45.385873c -4.06  -4.53c
iter:  66 02:15:12   -45.385876c -4.11  -4.53c
iter:  67 02:15:15   -45.385879c -4.15  -4.41c
iter:  68 02:15:16   -45.385882c -4.21  -4.24c
iter:  69 02:15:18   -45.385885c -4.23  -4.21c
Writing to output.gpw (mode='')

iter:  70 02:15:19   -45.385887c -4.28  -4.09c
iter:  71 02:15:19   -45.385889c -4.40  -4.04c
iter:  72 02:15:20   -45.385891c -4.41  -4.03c
iter:  73 02:15:21   -45.385893c -4.40  -4.04c
iter:  74 02:15:22   -45.385894c -4.44  -3.97
Writing to output.gpw (mode='')

iter:  75 02:15:23   -45.385896c -4.50  -3.95
iter:  76 02:15:33   -45.385897c -4.54  -3.90
iter:  77 02:15:35   -45.385899c -4.54  -3.92
iter:  78 02:15:37   -45.385900c -4.61  -3.98
iter:  79 02:15:38   -45.385901c -4.61  -4.04c
Writing to output.gpw (mode='')

[...]

iter: 145 02:19:25   -45.385913c -7.04  -5.32c
iter: 146 02:19:27   -45.385913c -7.17  -5.44c
iter: 147 02:19:29   -45.385913c -7.15  -5.42c
iter: 148 02:19:30   -45.385913c -7.21  -5.34c
iter: 149 02:19:32   -45.385913c -7.18  -5.37c
Writing to output.gpw (mode='')

iter: 150 02:19:35   -45.385913c -7.32  -5.35c
iter: 151 02:19:36   -45.385913c -7.29  -5.40c
iter: 152 02:19:37   -45.385913c -7.33  -5.28c
iter: 153 02:19:38   -45.385913c -7.40c -5.42c

Converged after 153 iterations.

Dipole moment: (-1.315471, -1.315471, -1.315471) |e|*Ang

Energy contributions relative to reference atoms: (reference = -18510.869232)

Kinetic:        +10.392471
Potential:       -8.616253
External:        +0.000000
XC:             -46.689611
Entropy (-ST):   -0.000000
Local:           -0.472520
Free energy:    -45.385913
Extrapolated:   -45.385913

Showing only first 2 kpts
 Kpt  Band  Eigenvalues  Occupancy
  0     3    -20.42321    2.00000
  0     4     -0.91299    2.00000

  1     3    -20.42647    2.00000
  1     4     -0.37966    2.00000

Fermi level: inf

Writing to output.gpw (mode='')

Forces in eV/Ang:
  0 Ca   -0.00000    0.00000   -0.00000