User:   vazumah@c23.hercules
Date:   Tue Jan 17 05:46:54 2023
Arch:   x86_64
Pid:    30427
CWD:    /home/vazumah/Python_projects/LiNRR/autocad_start/bulk_relaxations/Na_bulk_bcc
Python: 3.10.8
gpaw:   /home/vazumah/.conda/envs/GPAW/lib/python3.10/site-packages/gpaw
_gpaw:  /home/vazumah/.conda/envs/GPAW/lib/python3.10/site-packages/
        _gpaw.cpython-310-x86_64-linux-gnu.so
ase:    /home/vazumah/.conda/envs/GPAW/lib/python3.10/site-packages/ase (version 3.22.1)
numpy:  /home/vazumah/.conda/envs/GPAW/lib/python3.10/site-packages/numpy (version 1.24.1)
scipy:  /home/vazumah/.conda/envs/GPAW/lib/python3.10/site-packages/scipy (version 1.10.0)
units:  Angstrom and eV
cores: 24
OpenMP: True
OMP_NUM_THREADS: 1

Input parameters:
  h: 0.16
  kpts: {size: [2, 2, 1]}
  occupations: {name: fermi-dirac,
                width: 0.05}
  xc: BEEF-vdW

System changes: positions, numbers, cell, pbc, initial_charges, initial_magmoms

Initialize ...

species:
  Na:
    name: Sodium
    id: d7ecbc49209718622bcbe287195dca2a
    Z: 11.0
    valence: 7
    core: 4
    charge: 0.0
    file: /home/vazumah/.conda/envs/GPAW/share/gpaw/Na.PBE.gz
    compensation charges: {type: gauss,
                           rc: 0.37,
                           lmax: 2}
    cutoffs: {filter: 2.17,
              core: 2.59}
    valence states:
      #              energy  rcut
      - 3s(1.00)    -2.744   1.201
      - 2p(6.00)   -28.672   1.217
      - 3p(0.00)    -0.743   1.217
      -  s          24.468   1.201
      -  d           0.000   1.238

    # Using partial waves for Na as LCAO basis

Reference energy: -4418.610498  # eV

Spin-paired calculation

Convergence criteria:
 Maximum [total energy] change in last 3 cyles: 0.0005 eV / electron
 Maximum integral of absolute [dens]ity change: 0.0001 electrons / valence electron
 Maximum integral of absolute [eigenst]ate change: 4e-08 eV^2 / valence electron
 Maximum number of scf [iter]ations: 333
 (Square brackets indicate name in SCF output, whereas a 'c' in
 the SCF output indicates the quantity has converged.)

Symmetries present (total): 48

  ( 1  1  1)  ( 1  1  1)  ( 1  1  1)  ( 1  1  1)  ( 1  1  1)  ( 1  1  1)
  ( 0  0 -1)  ( 0  0 -1)  ( 0 -1  0)  ( 0 -1  0)  (-1  0  0)  (-1  0  0)
  ( 0 -1  0)  (-1  0  0)  ( 0  0 -1)  (-1  0  0)  ( 0  0 -1)  ( 0 -1  0)

[...]

  ( 0 -1  0)  ( 0 -1  0)  ( 0 -1  0)  ( 0 -1  0)  ( 0 -1  0)  ( 0 -1  0)
  ( 1  1  1)  ( 1  1  1)  ( 0  0 -1)  ( 0  0 -1)  (-1  0  0)  (-1  0  0)
  ( 0  0 -1)  (-1  0  0)  ( 1  1  1)  (-1  0  0)  ( 1  1  1)  ( 0  0 -1)

  (-1  0  0)  (-1  0  0)  (-1  0  0)  (-1  0  0)  (-1  0  0)  (-1  0  0)
  ( 1  1  1)  ( 1  1  1)  ( 0  0 -1)  ( 0  0 -1)  ( 0 -1  0)  ( 0 -1  0)
  ( 0  0 -1)  ( 0 -1  0)  ( 1  1  1)  ( 0 -1  0)  ( 1  1  1)  ( 0  0 -1)

  (-1 -1 -1)  (-1 -1 -1)  (-1 -1 -1)  (-1 -1 -1)  (-1 -1 -1)  (-1 -1 -1)
  ( 1  0  0)  ( 1  0  0)  ( 0  1  0)  ( 0  1  0)  ( 0  0  1)  ( 0  0  1)
  ( 0  1  0)  ( 0  0  1)  ( 1  0  0)  ( 0  0  1)  ( 1  0  0)  ( 0  1  0)
Note: your k-points are not as symmetric as your crystal!

4 k-points: 2 x 2 x 1 Monkhorst-Pack grid
2 k-points in the irreducible part of the Brillouin zone
       k-points in crystal coordinates                weights
   0:     0.25000000   -0.25000000    0.00000000          2/4
   1:     0.25000000    0.25000000    0.00000000          2/4

Occupation numbers: Fermi-Dirac:
  width: 0.0500  # eV

Eigensolver
   Davidson(niter=2)

Densities:
  Coarse grid: 20*20*20 grid
  Fine grid: 40*40*40 grid
  Total Charge: 0.000000

Density mixing:
  Method: separate
  Backend: pulay
  Linear mixing parameter: 0.05
  old densities: 5
  Damping of long wavelength oscillations: 50

Hamiltonian:
  XC and Coulomb potentials evaluated on a 40*40*40 grid
  Using the BEEF-vdW Exchange-Correlation functional
  Interpolation: tri-quintic (5. degree polynomial)
  Poisson solver: FastPoissonSolver using
    Stencil: 8*3+1=25 point O(h^6) finite-difference Laplacian
    FFT axes: [0, 1, 2]
    FST axes: []

XC parameters: BEEF-vdW with 2 nearest neighbor stencil

Total number of cores used: 24
Parallelization over k-points: 2
Domain decomposition: 3 x 2 x 2

Number of atoms: 1
Number of atomic orbitals: 7
Number of bands in calculation: 7
Number of valence electrons: 7
Bands to converge: occupied

... initialized

Initializing position-dependent things.

Density initialized from atomic densities
Creating initial wave functions:
  7 bands from LCAO basis set

       Na

Positions:
   0 Na     0.000000    0.000000    0.000000    ( 0.0000,  0.0000,  0.0000)

Unit cell:
           periodic     x           y           z      points  spacing
  1. axis:    yes   -2.115000    2.115000    2.115000    20     0.1496
  2. axis:    yes    2.115000   -2.115000    2.115000    20     0.1496
  3. axis:    yes    2.115000    2.115000   -2.115000    20     0.1496

  Lengths:   3.663287   3.663287   3.663287
  Angles:  109.471221 109.471221 109.471221

Effective grid spacing dv^(1/3) = 0.1679

     iter     time        total  log10-change:
                         energy  eigst   dens
iter:   1 05:47:29   -22.203333
iter:   2 05:47:52   -22.209370  -0.73  -1.69
iter:   3 05:48:16   -22.213626  -1.24  -1.70
iter:   4 05:48:38   -22.214748  -1.85  -2.23
Writing to output.gpw (mode='')

iter:   5 05:48:59   -22.214720c -2.29  -3.09
iter:   6 05:49:20   -22.214549c -2.61  -2.45
iter:   7 05:49:44   -22.214569c -3.04  -2.73
iter:   8 05:50:08   -22.214626c -3.03  -3.49
iter:   9 05:50:31   -22.214564c -4.12  -3.23
Writing to output.gpw (mode='')

iter:  10 05:50:56   -22.214561c -4.35  -4.17c
iter:  11 05:51:19   -22.214561c -4.64  -4.56c
iter:  12 05:51:40   -22.214561c -5.15  -4.67c
iter:  13 05:52:03   -22.214561c -5.91  -4.96c
iter:  14 05:52:24   -22.214561c -7.21  -5.00c
Writing to output.gpw (mode='')

iter:  15 05:52:48   -22.214561c -7.62c -5.01c

Converged after 15 iterations.

Dipole moment: (-0.149001, -0.149001, -0.149001) |e|*Ang

Energy contributions relative to reference atoms: (reference = -4418.610498)

Kinetic:         +5.094932
Potential:       -5.226170
External:        +0.000000
XC:             -22.049041
Entropy (-ST):   -0.000000
Local:           -0.034283
Free energy:    -22.214561
Extrapolated:   -22.214561

Showing all kpts
 Kpt  Band  Eigenvalues  Occupancy
  0     1    -25.55800    2.00000
  0     2    -25.55293    2.00000
  0     3     -2.04892    2.00000
  0     4      6.05638    0.00000

  1     1    -25.56526    2.00000
  1     2    -25.55598    2.00000
  1     3      0.03349    0.00000
  1     4      3.77146    0.00000

Fermi level: -1.00859

No gap

Forces in eV/Ang:
  0 Na   -0.00000   -0.00000    0.00000