User:   vazumah@f019
Date:   Wed Nov 23 02:11:23 2022
Arch:   x86_64
Pid:    4141
CWD:    /home/vazumah/Python_Projects/Li_NRR/autocad_start/bulk_relaxations/Sr_bulk_fcc
Python: 3.10.6
gpaw:   /home/vazumah/anaconda3/envs/NAME/lib/python3.10/site-packages/gpaw
_gpaw:  /home/vazumah/anaconda3/envs/NAME/lib/python3.10/site-packages/
        _gpaw.cpython-310-x86_64-linux-gnu.so
ase:    /home/vazumah/anaconda3/envs/NAME/lib/python3.10/site-packages/ase (version 3.22.1)
numpy:  /home/vazumah/anaconda3/envs/NAME/lib/python3.10/site-packages/numpy (version 1.23.3)
scipy:  /home/vazumah/anaconda3/envs/NAME/lib/python3.10/site-packages/scipy (version 1.9.1)
units:  Angstrom and eV
cores: 32
OpenMP: True
OMP_NUM_THREADS: 1

Input parameters:
  h: 0.16
  kpts: {size: [9, 9, 1]}
  occupations: {name: fermi-dirac,
                width: 0.05}
  xc: BEEF-vdW

System changes: positions, numbers, cell, pbc, initial_charges, initial_magmoms

Initialize ...

species:
  Sr:
    name: Strontium
    id: 1681cef0785a8ddd65899c0215808a0d
    Z: 38.0
    valence: 10
    core: 28
    charge: 0.0
    file: /home/vazumah/anaconda3/envs/NAME/share/gpaw/Sr.PBE.gz
    compensation charges: {type: gauss,
                           rc: 0.40,
                           lmax: 2}
    cutoffs: {filter: 2.39,
              core: 1.85}
    valence states:
      #              energy  rcut
      - 4s(2.00)   -40.883   1.291
      - 5s(2.00)    -3.525   1.291
      - 4p(6.00)   -22.826   1.291
      -  p           4.386   1.291
      -  d           0.000   1.254

    # Using partial waves for Sr as LCAO basis

Reference energy: -86496.770008  # eV

Spin-paired calculation

Convergence criteria:
 Maximum [total energy] change in last 3 cyles: 0.0005 eV / electron
 Maximum integral of absolute [dens]ity change: 0.0001 electrons / valence electron
 Maximum integral of absolute [eigenst]ate change: 4e-08 eV^2 / valence electron
 Maximum number of scf [iter]ations: 333
 (Square brackets indicate name in SCF output, whereas a 'c' in
 the SCF output indicates the quantity has converged.)

Symmetries present (total): 48

  ( 1  0  0)  ( 1  0  0)  ( 1  0  0)  ( 1  0  0)  ( 1  0 -1)  ( 1  0 -1)
  ( 1  0 -1)  ( 1 -1  0)  ( 0  1  0)  ( 0  0  1)  ( 1  0  0)  ( 1 -1  0)
  ( 1 -1  0)  ( 1  0 -1)  ( 0  0  1)  ( 0  1  0)  ( 1 -1  0)  ( 1  0  0)

  ( 1  0 -1)  ( 1  0 -1)  ( 1 -1  0)  ( 1 -1  0)  ( 1 -1  0)  ( 1 -1  0)
  ( 0  1 -1)  ( 0  0 -1)  ( 1  0  0)  ( 1  0 -1)  ( 0 -1  1)  ( 0 -1  0)
  ( 0  0 -1)  ( 0  1 -1)  ( 1  0 -1)  ( 1  0  0)  ( 0 -1  0)  ( 0 -1  1)

  ( 0  1  0)  ( 0  1  0)  ( 0  1  0)  ( 0  1  0)  ( 0  1 -1)  ( 0  1 -1)
  ( 1  0  0)  ( 0  1 -1)  ( 0  0  1)  (-1  1  0)  ( 1  0 -1)  ( 0  1  0)
  ( 0  0  1)  (-1  1  0)  ( 1  0  0)  ( 0  1 -1)  ( 0  0 -1)  (-1  1  0)

  ( 0  1 -1)  ( 0  1 -1)  ( 0  0  1)  ( 0  0  1)  ( 0  0  1)  ( 0  0  1)
  ( 0  0 -1)  (-1  1  0)  ( 1  0  0)  ( 0  1  0)  ( 0 -1  1)  (-1  0  1)
  ( 1  0 -1)  ( 0  1  0)  ( 0  1  0)  ( 1  0  0)  (-1  0  1)  ( 0 -1  1)

  ( 0  0 -1)  ( 0  0 -1)  ( 0  0 -1)  ( 0  0 -1)  ( 0 -1  1)  ( 0 -1  1)
  ( 1  0 -1)  ( 0  1 -1)  ( 0 -1  0)  (-1  0  0)  ( 1 -1  0)  ( 0  0  1)
  ( 0  1 -1)  ( 1  0 -1)  (-1  0  0)  ( 0 -1  0)  ( 0 -1  0)  (-1  0  1)

  ( 0 -1  1)  ( 0 -1  1)  ( 0 -1  0)  ( 0 -1  0)  ( 0 -1  0)  ( 0 -1  0)
  ( 0 -1  0)  (-1  0  1)  ( 1 -1  0)  ( 0  0 -1)  ( 0 -1  1)  (-1  0  0)
  ( 1 -1  0)  ( 0  0  1)  ( 0 -1  1)  (-1  0  0)  ( 1 -1  0)  ( 0  0 -1)

  (-1  1  0)  (-1  1  0)  (-1  1  0)  (-1  1  0)  (-1  0  1)  (-1  0  1)
  ( 0  1  0)  ( 0  1 -1)  (-1  0  1)  (-1  0  0)  ( 0  0  1)  ( 0 -1  1)
  ( 0  1 -1)  ( 0  1  0)  (-1  0  0)  (-1  0  1)  ( 0 -1  1)  ( 0  0  1)

  (-1  0  1)  (-1  0  1)  (-1  0  0)  (-1  0  0)  (-1  0  0)  (-1  0  0)
  (-1  1  0)  (-1  0  0)  ( 0  0 -1)  ( 0 -1  0)  (-1  1  0)  (-1  0  1)
  (-1  0  0)  (-1  1  0)  ( 0 -1  0)  ( 0  0 -1)  (-1  0  1)  (-1  1  0)
Note: your k-points are not as symmetric as your crystal!

81 k-points: 9 x 9 x 1 Monkhorst-Pack grid
25 k-points in the irreducible part of the Brillouin zone
       k-points in crystal coordinates                weights
   0:     0.00000000    0.00000000    0.00000000          1/81
   1:     0.11111111   -0.11111111    0.00000000          2/81
   2:     0.11111111    0.00000000    0.00000000          4/81
   3:     0.11111111    0.11111111    0.00000000          2/81
   4:     0.22222222   -0.22222222    0.00000000          2/81
   5:     0.22222222   -0.11111111    0.00000000          4/81
   6:     0.22222222    0.00000000    0.00000000          4/81
   7:     0.22222222    0.11111111    0.00000000          4/81
   8:     0.22222222    0.22222222    0.00000000          2/81
   9:     0.33333333   -0.33333333    0.00000000          2/81
          ...
  24:     0.44444444    0.44444444    0.00000000          2/81

Occupation numbers: Fermi-Dirac:
  width: 0.0500  # eV

Eigensolver
   Davidson(niter=2)

Densities:
  Coarse grid: 20*20*20 grid
  Fine grid: 40*40*40 grid
  Total Charge: 0.000000

Density mixing:
  Method: separate
  Backend: pulay
  Linear mixing parameter: 0.05
  old densities: 5
  Damping of long wavelength oscillations: 50

Hamiltonian:
  XC and Coulomb potentials evaluated on a 40*40*40 grid
  Using the BEEF-vdW Exchange-Correlation functional
  Interpolation: tri-quintic (5. degree polynomial)
  Poisson solver: FastPoissonSolver using
    Stencil: 12*3+1=37 point O(h^6) finite-difference Laplacian
    FFT axes: [0, 1, 2]
    FST axes: []

XC parameters: BEEF-vdW with 2 nearest neighbor stencil

Total number of cores used: 32
Parallelization over k-points: 2
Domain decomposition: 4 x 2 x 2

Number of atoms: 1
Number of atomic orbitals: 5
Number of bands in calculation: 5
Number of valence electrons: 10
Bands to converge: occupied

... initialized

Initializing position-dependent things.

Density initialized from atomic densities
Creating initial wave functions:
  5 bands from LCAO basis set

       Sr

Positions:
   0 Sr     0.000000    0.000000    0.000000    ( 0.0000,  0.0000,  0.0000)

Unit cell:
           periodic     x           y           z      points  spacing
  1. axis:    yes    0.000000    3.040000    3.040000    20     0.1755
  2. axis:    yes    3.040000    0.000000    3.040000    20     0.1755
  3. axis:    yes    3.040000    3.040000    0.000000    20     0.1755

  Lengths:   4.299209   4.299209   4.299209
  Angles:   60.000000  60.000000  60.000000

Effective grid spacing dv^(1/3) = 0.1915

     iter     time        total  log10-change:
                         energy  eigst   dens
iter:   1 02:11:34  -108.359598
iter:   2 02:11:35  -108.506321  +0.19  -1.56
iter:   3 02:11:38  -108.558375  -0.27  -1.58
iter:   4 02:11:40  -108.584242  -0.50  -1.62
Writing to output.gpw (mode='')

iter:   5 02:11:41  -108.595631  -0.87  -2.09
iter:   6 02:11:42  -108.601631  -1.27  -2.14
iter:   7 02:11:44  -108.601057  -1.41  -2.35
iter:   8 02:11:46  -108.603395c -1.56  -2.66
iter:   9 02:11:50  -108.605334c -1.69  -2.53
Writing to output.gpw (mode='')

iter:  10 02:11:52  -108.607840c -1.78  -2.44
iter:  11 02:11:53  -108.606132c -1.89  -2.35
iter:  12 02:11:55  -108.606797c -2.00  -2.70
iter:  13 02:11:57  -108.607350c -2.07  -2.67
iter:  14 02:11:58  -108.607925c -2.13  -2.62
Writing to output.gpw (mode='')

[...]

iter:  35 02:12:33  -108.611026c -3.25  -3.69
iter:  36 02:12:34  -108.611051c -3.33  -4.28c
iter:  37 02:12:36  -108.611072c -3.39  -4.48c
iter:  38 02:12:37  -108.611091c -3.45  -4.04c
iter:  39 02:12:39  -108.611107c -3.50  -4.17c
Writing to output.gpw (mode='')

[...]

iter:  45 02:12:48  -108.611173c -3.81  -3.71
iter:  46 02:12:50  -108.611180c -3.90  -3.69
iter:  47 02:12:51  -108.611185c -3.97  -3.57
iter:  48 02:12:53  -108.611191c -4.02  -3.57
iter:  49 02:12:55  -108.611195c -4.05  -3.70
Writing to output.gpw (mode='')

iter:  50 02:12:57  -108.611200c -4.11  -3.66
iter:  51 02:12:58  -108.611204c -4.16  -4.53c
iter:  52 02:13:00  -108.611206c -4.24  -4.46c
iter:  53 02:13:02  -108.611209c -4.28  -3.55
iter:  54 02:13:04  -108.611212c -4.34  -4.31c
Writing to output.gpw (mode='')

iter:  55 02:13:05  -108.611214c -4.39  -4.35c
iter:  56 02:13:07  -108.611216c -4.44  -4.97c
iter:  57 02:13:09  -108.611218c -4.48  -5.31c
iter:  58 02:13:11  -108.611219c -4.56  -4.44c
iter:  59 02:13:13  -108.611220c -4.61  -6.06c
Writing to output.gpw (mode='')

[...]

iter: 105 02:14:29  -108.611230c -7.16  -6.18c
iter: 106 02:14:30  -108.611230c -7.21  -5.54c
iter: 107 02:14:32  -108.611230c -7.27  -6.35c
iter: 108 02:14:34  -108.611230c -7.32  -5.82c
iter: 109 02:14:35  -108.611230c -7.37  -5.92c
Writing to output.gpw (mode='')

iter: 110 02:14:37  -108.611230c -7.43c -6.08c

Converged after 110 iterations.

Dipole moment: (-1.730309, -1.730309, -1.730309) |e|*Ang

Energy contributions relative to reference atoms: (reference = -86496.770008)

Kinetic:         +9.135735
Potential:       -7.911156
External:        +0.000000
XC:            -109.697473
Entropy (-ST):   -0.000000
Local:           -0.138336
Free energy:   -108.611230
Extrapolated:  -108.611230

Showing only first 2 kpts
 Kpt  Band  Eigenvalues  Occupancy
  0     3    -15.46918    2.00000
  0     4     -0.28542    2.00000

  1     3    -15.47414    2.00000
  1     4      0.21550    2.00000

Fermi level: inf

Forces in eV/Ang:
  0 Sr    0.00000    0.00000    0.00000