User:   vazumah@c07.hercules
Date:   Tue Jan 17 05:19:35 2023
Arch:   x86_64
Pid:    32552
CWD:    /home/vazumah/Python_projects/LiNRR/autocad_start/bulk_relaxations/K_bulk_bcc
Python: 3.10.8
gpaw:   /home/vazumah/.conda/envs/GPAW/lib/python3.10/site-packages/gpaw
_gpaw:  /home/vazumah/.conda/envs/GPAW/lib/python3.10/site-packages/
        _gpaw.cpython-310-x86_64-linux-gnu.so
ase:    /home/vazumah/.conda/envs/GPAW/lib/python3.10/site-packages/ase (version 3.22.1)
numpy:  /home/vazumah/.conda/envs/GPAW/lib/python3.10/site-packages/numpy (version 1.24.1)
scipy:  /home/vazumah/.conda/envs/GPAW/lib/python3.10/site-packages/scipy (version 1.10.0)
units:  Angstrom and eV
cores: 24
OpenMP: True
OMP_NUM_THREADS: 1

Input parameters:
  h: 0.16
  kpts: {size: [2, 2, 1]}
  occupations: {name: fermi-dirac,
                width: 0.05}
  xc: BEEF-vdW

System changes: positions, numbers, cell, pbc, initial_charges, initial_magmoms

Initialize ...

species:
  K:
    name: Potassium
    id: 04190408da443a44668134082ce1c192
    Z: 19.0
    valence: 9
    core: 10
    charge: 0.0
    file: /home/vazumah/.conda/envs/GPAW/share/gpaw/K.PBE.gz
    compensation charges: {type: gauss,
                           rc: 0.35,
                           lmax: 2}
    cutoffs: {filter: 1.91,
              core: 1.27}
    valence states:
      #              energy  rcut
      - 3s(2.00)   -35.338   1.122
      - 4s(1.00)    -2.319   1.122
      - 3p(6.00)   -18.813   1.106
      -  p           8.398   1.106
      -  d           0.000   0.937

    # Using partial waves for K as LCAO basis

Reference energy: -16382.253218  # eV

Spin-paired calculation

Convergence criteria:
 Maximum [total energy] change in last 3 cyles: 0.0005 eV / electron
 Maximum integral of absolute [dens]ity change: 0.0001 electrons / valence electron
 Maximum integral of absolute [eigenst]ate change: 4e-08 eV^2 / valence electron
 Maximum number of scf [iter]ations: 333
 (Square brackets indicate name in SCF output, whereas a 'c' in
 the SCF output indicates the quantity has converged.)

Symmetries present (total): 48

  ( 1  1  1)  ( 1  1  1)  ( 1  1  1)  ( 1  1  1)  ( 1  1  1)  ( 1  1  1)
  ( 0  0 -1)  ( 0  0 -1)  ( 0 -1  0)  ( 0 -1  0)  (-1  0  0)  (-1  0  0)
  ( 0 -1  0)  (-1  0  0)  ( 0  0 -1)  (-1  0  0)  ( 0  0 -1)  ( 0 -1  0)

[...]

  ( 0 -1  0)  ( 0 -1  0)  ( 0 -1  0)  ( 0 -1  0)  ( 0 -1  0)  ( 0 -1  0)
  ( 1  1  1)  ( 1  1  1)  ( 0  0 -1)  ( 0  0 -1)  (-1  0  0)  (-1  0  0)
  ( 0  0 -1)  (-1  0  0)  ( 1  1  1)  (-1  0  0)  ( 1  1  1)  ( 0  0 -1)

  (-1  0  0)  (-1  0  0)  (-1  0  0)  (-1  0  0)  (-1  0  0)  (-1  0  0)
  ( 1  1  1)  ( 1  1  1)  ( 0  0 -1)  ( 0  0 -1)  ( 0 -1  0)  ( 0 -1  0)
  ( 0  0 -1)  ( 0 -1  0)  ( 1  1  1)  ( 0 -1  0)  ( 1  1  1)  ( 0  0 -1)

  (-1 -1 -1)  (-1 -1 -1)  (-1 -1 -1)  (-1 -1 -1)  (-1 -1 -1)  (-1 -1 -1)
  ( 1  0  0)  ( 1  0  0)  ( 0  1  0)  ( 0  1  0)  ( 0  0  1)  ( 0  0  1)
  ( 0  1  0)  ( 0  0  1)  ( 1  0  0)  ( 0  0  1)  ( 1  0  0)  ( 0  1  0)
Note: your k-points are not as symmetric as your crystal!

4 k-points: 2 x 2 x 1 Monkhorst-Pack grid
2 k-points in the irreducible part of the Brillouin zone
       k-points in crystal coordinates                weights
   0:     0.25000000   -0.25000000    0.00000000          2/4
   1:     0.25000000    0.25000000    0.00000000          2/4

Occupation numbers: Fermi-Dirac:
  width: 0.0500  # eV

Eigensolver
   Davidson(niter=2)

Densities:
  Coarse grid: 24*24*24 grid
  Fine grid: 48*48*48 grid
  Total Charge: 0.000000

Density mixing:
  Method: separate
  Backend: pulay
  Linear mixing parameter: 0.05
  old densities: 5
  Damping of long wavelength oscillations: 50

Hamiltonian:
  XC and Coulomb potentials evaluated on a 48*48*48 grid
  Using the BEEF-vdW Exchange-Correlation functional
  Interpolation: tri-quintic (5. degree polynomial)
  Poisson solver: FastPoissonSolver using
    Stencil: 8*3+1=25 point O(h^6) finite-difference Laplacian
    FFT axes: [0, 1, 2]
    FST axes: []

XC parameters: BEEF-vdW with 2 nearest neighbor stencil

Total number of cores used: 24
Parallelization over k-points: 2
Domain decomposition: 3 x 2 x 2

Number of atoms: 1
Number of atomic orbitals: 5
Number of bands in calculation: 5
Number of valence electrons: 9
Bands to converge: occupied

... initialized

Initializing position-dependent things.

Density initialized from atomic densities
Creating initial wave functions:
  5 bands from LCAO basis set

       K

Positions:
   0 K      0.000000    0.000000    0.000000    ( 0.0000,  0.0000,  0.0000)

Unit cell:
           periodic     x           y           z      points  spacing
  1. axis:    yes   -2.615000    2.615000    2.615000    24     0.1541
  2. axis:    yes    2.615000   -2.615000    2.615000    24     0.1541
  3. axis:    yes    2.615000    2.615000   -2.615000    24     0.1541

  Lengths:   4.529313   4.529313   4.529313
  Angles:  109.471221 109.471221 109.471221

Effective grid spacing dv^(1/3) = 0.1730

     iter     time        total  log10-change:
                         energy  eigst   dens
iter:   1 05:20:00   -41.336734
iter:   2 05:20:25   -41.341976  -0.29  -1.38
iter:   3 05:20:55   -41.279266  -0.75  -1.41
iter:   4 05:21:18   -41.251727  -0.80  -1.54
Writing to output.gpw (mode='')

iter:   5 05:21:32   -41.258795  -1.38  -1.75
iter:   6 05:22:10   -41.257542  -1.79  -2.16
iter:   7 05:22:19   -41.257784c -2.26  -3.10
iter:   8 05:23:04   -41.257801c -2.55  -2.89
iter:   9 05:23:07   -41.257835c -2.93  -3.30
Writing to output.gpw (mode='')

iter:  10 05:23:52   -41.257849c -3.30  -3.78
iter:  11 05:23:52   -41.257858c -3.61  -3.74
iter:  12 05:24:42   -41.257861c -3.91  -3.77
iter:  13 05:25:10   -41.257861c -4.17  -3.79
iter:  14 05:25:37   -41.257865c -4.28  -3.65
Writing to output.gpw (mode='')

iter:  15 05:26:03   -41.257866c -4.58  -4.43c
iter:  16 05:26:29   -41.257866c -4.80  -4.38c
iter:  17 05:26:57   -41.257867c -5.00  -4.58c
iter:  18 05:27:22   -41.257867c -5.22  -4.68c
iter:  19 05:27:48   -41.257867c -5.43  -4.70c
Writing to output.gpw (mode='')

[...]

iter:  25 05:30:21   -41.257867c -6.63  -5.10c
iter:  26 05:30:46   -41.257867c -6.80  -5.27c
iter:  27 05:30:51   -41.257867c -6.99  -5.99c
iter:  28 05:31:38   -41.257867c -7.18  -5.85c
iter:  29 05:31:42   -41.257867c -7.32  -5.86c
Writing to output.gpw (mode='')

iter:  30 05:32:28   -41.257867c -7.55c -5.65c

Converged after 30 iterations.

Dipole moment: (-0.669599, -0.669599, -0.669599) |e|*Ang

Energy contributions relative to reference atoms: (reference = -16382.253218)

Kinetic:         +5.496576
Potential:       -4.613940
External:        +0.000000
XC:             -41.467497
Entropy (-ST):   -0.000001
Local:           -0.673005
Free energy:    -41.257868
Extrapolated:   -41.257867

Showing all kpts
 Kpt  Band  Eigenvalues  Occupancy
  0     2    -14.85466    2.00000
  0     3    -14.84339    2.00000
  0     4     -0.39350    2.00000

  1     2    -14.87129    2.00000
  1     3    -14.84963    2.00000
  1     4      0.99158    0.00000

Fermi level: 0.29905

No gap

Forces in eV/Ang:
  0 K    -0.00000    0.00000    0.00000